# Converted from /home/IITB/multiscale-mechanics/ashwani12/ashwani/Bi2Te3_Sb2Te3/nep/elastic_const/energy_strain/dft/Bi2Te3/more_relax/scf/espresso.pwi | 1x1x1 supercell | Bi=1 Sb=2 Te=3

15 atoms
3 atom types

0.000000 4.389895 xlo xhi
0.000000 3.801760 ylo yhi
0.000000 30.242854 zlo zhi
-2.194947 0.000000 0.000000 xy xz yz

Masses

1 208.980  # Bi
2 121.760  # Sb
3 127.600  # Te

Atoms  # atomic

1 1 0.000000 0.000000 12.101180
2 1 0.000000 0.000000 18.141674
3 1 2.194947 1.267253 22.182056
4 1 2.194947 1.267253 28.222722
5 1 0.000000 2.534507 2.020132
6 1 0.000000 2.534507 8.060798
7 3 0.000000 0.000000 6.329542
8 3 0.000000 0.000000 23.913312
9 3 2.194947 1.267253 16.410445
10 3 2.194947 1.267253 3.751312
11 3 0.000000 2.534507 26.491542
12 3 0.000000 2.534507 13.832409
13 3 0.000000 0.000000 0.000000
14 3 2.194947 1.267253 10.081044
15 3 0.000000 2.534507 20.161810
