# Bi2Te3 -> Sb alloy (20pct) | 2x2x1

60 atoms
3 atom types

0.000000 8.779789 xlo xhi
0.000000 7.603520 ylo yhi
0.000000 30.242854 zlo zhi
-4.389895 0.000000 0.000000 xy xz yz

Masses

1 208.980  # Bi
2 121.760  # Sb
3 127.600  # Te

Atoms  # atomic

1 2 0.000000 0.000000 12.101180
2 1 0.000000 0.000000 18.141674
3 1 2.194947 1.267253 22.182056
4 2 2.194947 1.267253 28.222722
5 1 0.000000 2.534507 2.020132
6 1 0.000000 2.534507 8.060798
7 3 0.000000 0.000000 6.329542
8 3 0.000000 0.000000 23.913312
9 3 2.194947 1.267253 16.410445
10 3 2.194947 1.267253 3.751312
11 3 0.000000 2.534507 26.491542
12 3 0.000000 2.534507 13.832409
13 3 0.000000 0.000000 0.000000
14 3 2.194947 1.267253 10.081044
15 3 0.000000 2.534507 20.161810
16 1 -2.194947 3.801760 12.101180
17 1 -2.194947 3.801760 18.141674
18 2 0.000000 5.069014 22.182056
19 1 0.000000 5.069014 28.222722
20 1 -2.194947 6.336267 2.020132
21 1 -2.194947 6.336267 8.060798
22 3 -2.194947 3.801760 6.329542
23 3 -2.194947 3.801760 23.913312
24 3 0.000000 5.069014 16.410445
25 3 0.000000 5.069014 3.751312
26 3 -2.194947 6.336267 26.491542
27 3 -2.194947 6.336267 13.832409
28 3 -2.194947 3.801760 0.000000
29 3 0.000000 5.069014 10.081044
30 3 -2.194947 6.336267 20.161810
31 1 4.389895 0.000000 12.101180
32 1 4.389895 0.000000 18.141674
33 1 6.584842 1.267253 22.182056
34 1 6.584842 1.267253 28.222722
35 1 4.389895 2.534507 2.020132
36 1 4.389895 2.534507 8.060798
37 3 4.389895 0.000000 6.329542
38 3 4.389895 0.000000 23.913312
39 3 6.584842 1.267253 16.410445
40 3 6.584842 1.267253 3.751312
41 3 4.389895 2.534507 26.491542
42 3 4.389895 2.534507 13.832409
43 3 4.389895 0.000000 0.000000
44 3 6.584842 1.267253 10.081044
45 3 4.389895 2.534507 20.161810
46 1 2.194947 3.801760 12.101180
47 1 2.194947 3.801760 18.141674
48 2 4.389895 5.069014 22.182056
49 1 4.389895 5.069014 28.222722
50 1 2.194947 6.336267 2.020132
51 2 2.194947 6.336267 8.060798
52 3 2.194947 3.801760 6.329542
53 3 2.194947 3.801760 23.913312
54 3 4.389895 5.069014 16.410445
55 3 4.389895 5.069014 3.751312
56 3 2.194947 6.336267 26.491542
57 3 2.194947 6.336267 13.832409
58 3 2.194947 3.801760 0.000000
59 3 4.389895 5.069014 10.081044
60 3 2.194947 6.336267 20.161810
