LAMMPS (24 Mar 2022)
Reading data file ...
  triclinic box = (0 0 0) to (8.779789 7.60352 30.242854) with tilt (-4.389895 0 0)
WARNING: Triclinic box skew is large (../domain.cpp:228)
  3 by 2 by 8 MPI processor grid
  reading atoms ...
  60 atoms
  read_data CPU = 0.133 seconds
Use the NEP4 potential with 3 atom types.
    type 0( Bi with Z = 83).
    type 1( Sb with Z = 51).
    type 2( Te with Z = 52).
    has universal ZBL with inner cutoff 1.25 A and outer cutoff 2.5 A.
    radial cutoff = 6 A.
    angular cutoff = 4 A.
    n_max_radial = 6.
    n_max_angular = 6.
    basis_size_radial = 8.
    basis_size_angular = 8.
    l_max_3body = 6.
    l_max_4body = 2.
    l_max_5body = 1.
    ANN = 56-60-1.
    number of neural network parameters = 10441.
    number of descriptor parameters = 1134.
    total number of parameters = 11575.
Neighbor list info ...
  update every 1 steps, delay 0 steps, check yes
  max neighbors/atom: 2000, page size: 100000
  master list distance cutoff = 7
  ghost atom cutoff = 7
  1 neighbor lists, perpetual/occasional/extra = 1 0 0
  (1) pair nep, perpetual
      attributes: full, newton on
      pair build: full/nsq
      stencil: none
      bin: none
Setting up cg style minimization ...
  Unit style    : metal
  Current step  : 0
WARNING: Energy due to 3 extra global DOFs will be included in minimizer energies
Per MPI rank memory allocation (min/avg/max) = 4.085 | 4.085 | 4.085 Mbytes
   Step          Temp          PotEng         Press           Pxx            Pyy            Pzz            Pxy            Pxz            Pyz             Lx             Ly             Lz           Volume    
         0   0             -237.33476     -8964.428      -8852.8185     -8900.4255     -9140.0399      5.0820208      15.045316      4.4465719      8.779789       7.60352        30.242854      2018.9313    
         1   0             -237.33808     -8811.3916     -8705.7592     -8752.8783     -8975.5372      4.9911936      15.100558      4.5657181      8.7789386      7.6027796      30.23983       2018.3373    
         2   0             -237.34134     -8658.0447     -8558.3846     -8605.0125     -8810.7368      4.8994349      15.156601      4.6863939      8.778087       7.6020381      30.236805      2017.7429    
         3   0             -237.34455     -8504.3815     -8410.6887     -8456.822      -8645.6339      4.8067173      15.213469      4.8086417      8.7772342      7.6012955      30.233781      2017.148     
         4   0             -237.34771     -8350.3962     -8262.6652     -8308.3003     -8480.223       4.7130116      15.271189      4.932506       8.7763801      7.6005518      30.230757      2016.5526    
         5   0             -237.35081     -8196.0822     -8114.3074     -8159.4406     -8314.4985      4.6182873      15.329788      5.0580335      8.7755246      7.5998068      30.227733      2015.9568    
         6   0             -237.35386     -8041.4328     -7965.6083     -8010.2358     -8148.4545      4.5225119      15.389296      5.1852738      8.7746678      7.5990607      30.224708      2015.3604    
         7   0             -237.35685     -7886.441      -7816.5603     -7860.6782     -7982.0846      4.4256514      15.449743      5.3142787      8.7738096      7.5983132      30.221684      2014.7634    
         8   0             -237.35979     -7731.0993     -7667.1555     -7710.7599     -7815.3824      4.3276696      15.511162      5.4451034      8.7729498      7.5975644      30.21866       2014.1659    
         9   0             -237.36267     -7575.3995     -7517.3857     -7560.4722     -7648.3406      4.2285281      15.573588      5.5778058      8.7720885      7.5968143      30.215635      2013.5677    
        10   0             -237.3655      -7419.3333     -7367.2418     -7409.8063     -7480.9518      4.1281862      15.637056      5.7124477      8.7712256      7.5960627      30.212611      2012.969     
        11   0             -237.36828     -7262.8916     -7216.7145     -7258.7523     -7313.2081      4.0266006      15.701607      5.8490944      8.7703609      7.5953096      30.209587      2012.3695    
        12   0             -237.371       -7106.0649     -7065.7935     -7107.3001     -7145.101       3.9237254      15.76728       5.9878151      8.7694946      7.5945549      30.206563      2011.7694    
        13   0             -237.37366     -6948.8428     -6914.4682     -6955.4386     -6976.6215      3.8195113      15.834119      6.1286839      8.7686264      7.5937986      30.203538      2011.1685    
        14   0             -237.37627     -6791.2143     -6762.7269     -6803.1562     -6807.7598      3.713906       15.902172      6.2717793      8.7677562      7.5930406      30.200514      2010.5669    
        15   0             -237.37882     -6633.1678     -6610.5574     -6650.4402     -6638.5057      3.6068533      15.971489      6.4171853      8.7668841      7.5922807      30.19749       2009.9644    
        16   0             -237.38132     -6474.9716     -6458.2169     -6497.5488     -6469.149       3.4984857      16.041997      6.5647295      8.7660114      7.5915204      30.194471      2009.3621    
        17   0             -237.38375     -6316.7423     -6305.8168     -6344.5935     -6299.8166      3.3888356      16.113689      6.7143736      8.7651387      7.59076        30.19146       2008.7605    
        18   0             -237.38612     -6158.4866     -6153.3623     -6191.5795     -6130.518       3.2778589      16.186606      6.8661835      8.7642661      7.5899997      30.188457      2008.1596    
        19   0             -237.38843     -6000.2115     -6000.8591     -6038.5122     -5961.2633      3.1655089      16.260794      7.0202288      8.7633936      7.5892393      30.185462      2007.5594    
        20   0             -237.39068     -5841.9247     -5848.3134     -5885.3977     -5792.0631      3.0517361      16.336299      7.1765832      8.7625211      7.588479       30.182476      2006.9598    
        21   0             -237.39287     -5683.6343     -5695.7317     -5732.2422     -5622.9291      2.9364876      16.413172      7.3353249      8.7616486      7.5877186      30.1795        2006.3611    
        22   0             -237.395       -5525.3491     -5543.121      -5579.0527     -5453.8736      2.8197072      16.491466      7.4965368      8.7607763      7.5869583      30.176533      2005.7631    
        23   0             -237.39707     -5367.0786     -5390.489      -5425.8366     -5284.9102      2.7013349      16.571239      7.6603074      8.7599039      7.5861979      30.173577      2005.1659    
        24   0             -237.39907     -5208.8331     -5237.844      -5272.602      -5116.0533      2.5813065      16.65255       7.8267307      8.7590317      7.5854376      30.170631      2004.5696    
        25   0             -237.40102     -5050.6237     -5085.1949     -5119.3576     -4947.3185      2.4595535      16.735466      7.9959072      8.7581595      7.5846772      30.167697      2003.9741    
        26   0             -237.40291     -4892.4624     -4932.5514     -4966.1128     -4778.723       2.3360021      16.820055      8.1679445      8.7572874      7.5839169      30.164774      2003.3796    
        27   0             -237.40473     -4734.3623     -4779.9241     -4812.8779     -4610.285       2.2105732      16.906392      8.3429576      8.7564154      7.5831565      30.161864      2002.786     
        28   0             -237.4065      -4576.3377     -4627.3244     -4659.6641     -4442.0248      2.0831816      16.994559      8.5210701      8.7555434      7.5823962      30.158967      2002.1935    
        29   0             -237.4082      -4418.4042     -4474.7649     -4506.4836     -4273.9642      1.9537354      17.08464       8.7024149      8.7546716      7.5816358      30.156084      2001.602     
        30   0             -237.40985     -4260.5789     -4322.2593     -4353.35       -4106.1273      1.822135       17.176731      8.8871355      8.7537998      7.5808755      30.153216      2001.0116    
        31   0             -237.41143     -4102.8803     -4169.8227     -4200.2778     -3938.5403      1.6882726      17.270932      9.0753867      8.7529281      7.5801151      30.150363      2000.4224    
        32   0             -237.41296     -3945.3291     -4017.4718     -4047.2833     -3771.2323      1.552031       17.367354      9.2673363      8.7520565      7.5793548      30.147527      1999.8344    
        33   0             -237.41443     -3787.9481     -3865.2247     -3894.3843     -3604.2351      1.4132825      17.466116      9.4631666      8.751185       7.5785944      30.144709      1999.2478    
        34   0             -237.41584     -3630.7623     -3713.1019     -3741.6008     -3437.5842      1.2718872      17.567349      9.6630763      8.7503136      7.577834       30.141911      1998.6626    
        35   0             -237.41719     -3473.7998     -3561.1258     -3588.9547     -3271.3188      1.1276922      17.671197      9.8672821      8.7494423      7.5770737      30.139132      1998.0789    
        36   0             -237.41849     -3317.0916     -3409.3216     -3436.4706     -3105.4827      0.98052885     17.777817      10.076022      8.7485712      7.5763133      30.136376      1997.4967    
        37   0             -237.41972     -3160.6729     -3257.7175     -3284.1761     -2940.125       0.83021124     17.887383      10.289557      8.7477002      7.575553       30.133643      1996.9163    
        38   0             -237.4209      -3004.5827     -3106.345      -3132.102      -2775.3009      0.67653323     18.000088      10.508176      8.7468293      7.5747926      30.130935      1996.3377    
        39   0             -237.42203     -2848.8654     -2955.24       -2980.2835     -2611.0728      0.51926547     18.116145      10.732199      8.7459585      7.5740323      30.128256      1995.7611    
        40   0             -237.4231      -2693.5716     -2804.4431     -2828.7602     -2447.5114      0.3581516      18.235792      10.961981      8.745088       7.5732719      30.125607      1995.1867    
        41   0             -237.42411     -2538.7587     -2654.0007     -2677.5777     -2284.6976      0.19290375     18.359299      11.19792       8.7442175      7.5725116      30.12299       1994.6145    
        42   0             -237.42507     -2384.4928     -2503.9661     -2526.7881     -2122.7243      0.023196947    18.486967      11.440462      8.7433473      7.5717512      30.12041       1994.045     
        43   0             -237.42597     -2230.8506     -2354.4009     -2376.4519     -1961.6992     -0.15133769     18.619138      11.690112      8.7424773      7.5709909      30.11787       1993.4782    
        44   0             -237.42682     -2077.9212     -2205.3769     -2226.6394     -1801.7474     -0.33112152     18.756204      11.947441      8.7416075      7.5702305      30.115373      1992.9145    
        45   0             -237.42763     -1925.8093     -2056.9784     -2077.4333     -1643.0162     -0.51663903     18.898615      12.213104      8.7407379      7.5694702      30.112927      1992.3542    
        46   0             -237.42838     -1774.6392     -1909.3055     -1928.9319     -1485.6803     -0.70845144     19.046889      12.487853      8.7398686      7.5687098      30.110535      1991.7977    
        47   0             -237.42908     -1624.5596     -1762.4776     -1781.2525     -1329.9487     -0.90721414     19.201634      12.772558      8.7389996      7.5679495      30.108206      1991.2456    
        48   0             -237.42974     -1475.7506     -1616.6398     -1634.5374     -1176.0747     -1.1136994      19.363564      13.068237      8.7381309      7.5671891      30.105949      1990.6983    
        49   0             -237.43036     -1328.4333     -1471.9695     -1488.9611     -1024.3691     -1.328826       19.533528      13.37609       8.7372626      7.5664288      30.103773      1990.1567    
        50   0             -237.43093     -1182.8824     -1328.6876     -1344.7409     -875.21867     -1.5536996      19.712547      13.697539      8.7363946      7.5656684      30.101693      1989.6215    
        51   0             -237.43147     -1039.4459     -1187.0734     -1202.1516     -729.11275     -1.7896661      19.901862      14.034296      8.7355272      7.5649081      30.099726      1989.094     
        52   0             -237.43198     -898.57206     -1047.4864     -1061.5473     -586.68245     -2.0383863      20.103004      14.388436      8.7346602      7.5641477      30.097892      1988.5756    
        53   0             -237.43246     -760.85158     -910.40037     -923.39494     -448.75943     -2.3019386      20.317888      14.762499      8.7337939      7.5633874      30.096221      1988.0681    
        54   0             -237.43293     -627.08256     -776.45467     -788.3252      -316.46779     -2.5829637      20.548942      15.159625      8.7329283      7.562627       30.094752      1987.5742    
        55   0             -237.43339     -498.37543     -646.53825     -657.21595     -191.3721      -2.8848643      20.799293      15.583702      8.7320636      7.5618667      30.093539      1987.0974    
        56   0             -237.43387     -376.32823     -521.92908     -531.33079     -75.724809     -3.2120713      21.073008      16.039504      8.7311999      7.5611063      30.092658      1986.643     
        57   0             -237.43439     -263.32881     -404.53464     -412.55867      27.106886     -3.5703369      21.375355      16.53262       8.7303375      7.560346       30.092228      1986.2186    
        58   0             -237.43501     -163.08271     -297.31064     -303.83268      111.89518     -3.9667915      21.712844      17.068509      8.7294767      7.5595856      30.092426      1985.8361    
        59   0             -237.43579     -81.472037     -204.93941     -209.81364      170.33694     -4.408498       22.091859      17.648149      8.7286176      7.5588252      30.093539      1985.5144    
        60   0             -237.43687     -27.335238     -134.43177     -137.52087      189.94692     -4.8940088      22.510798      18.250936      8.72776        7.5580649      30.095992      1985.2814    
        61   0             -237.43805     -13.89677      -103.78683     -105.59258      167.6891      -5.2457412      22.813442      18.633019      8.727138       7.5575138      30.099016      1985.1946    
        62   0             -237.43936     -10.781742     -83.829819     -84.718465      136.20306     -5.4932071      23.021565      18.834217      8.7265939      7.5570344      30.102041      1985.1444    
        63   0             -237.44095     -9.2644961     -65.249021     -65.472967      102.9285      -5.664811       23.157513      18.878383      8.7260528      7.5565607      30.105065      1985.0963    
        64   0             -237.44302     -7.7192127     -46.191112     -45.980676      69.01415      -5.7638082      23.220698      18.742061      8.7254953      7.5560763      30.108089      1985.0416    
        65   0             -237.44607     -6.0957801     -26.279618     -25.859021      33.851299     -5.7855021      23.198939      18.350283      8.7249067      7.5555688      30.111113      1984.9738    
        66   0             -237.45216     -4.2255634     -3.9494561     -3.5463794     -5.1808548     -5.7005064      23.03293       17.373016      8.7242238      7.5549868      30.114138      1984.8648    
        67   0             -237.48954     -0.87400068     8.8115915      8.9413277     -20.374921     -5.0300127      21.891173      11.370394      8.7235531      7.5544652      30.111113      1984.3759    
        68   0             -237.49781     -15.964553     -18.797302     -17.955534     -11.140822     -5.0582501      21.811924      10.461924      8.7239336      7.5547996      30.108089      1984.351     
        69   0             -237.50637      95.681177      96.160239      95.327389      95.555902     -4.3272258      21.060404      8.3872084      8.7230556      7.5540733      30.1063        1983.8426    
        70   0             -237.508       -75.450345     -68.871506     -69.086722     -88.392807     -4.5207919      21.241122      8.5426363      8.7239336      7.5548271      30.1093        1984.438     
        71   0             -237.50984      61.278424      60.864678      61.271444      61.699151     -4.6055191      21.278158      8.4614743      8.7232537      7.5542362      30.106276      1983.9289    
        72   0             -237.5124      -113.43421     -106.85455     -106.73955     -126.70854     -4.5108134      21.195508      8.0833034      8.7241257      7.5549965      30.1093        1984.5262    
        73   0             -237.51368      32.225842      32.191755      32.599344      31.886427     -4.5108699      21.162533      7.932774       8.7233864      7.554357       30.106276      1983.9908    
        74   0             -237.5184      -147.2845      -139.84671     -139.839       -162.16778     -4.3224317      20.981183      7.2098559      8.724253       7.5551174      30.109209      1984.5809    
        75   0             -237.51938      1.6060915      2.4338181      2.7559393     -0.37148286    -4.3340434      20.961427      7.1095962      8.7234958      7.5544617      30.106185      1984.0372    
        76   0             -237.56799     -252.71655     -241.47685     -242.18912     -274.48367     -2.4411968      19.125424      0.2653883      8.7242711      7.5552221      30.105778      1984.3864    
        77   0             -237.56845     -99.794406     -95.382033     -95.650098     -108.35109     -2.4935107      19.147381      0.28284457     8.7234977      7.5545503      30.102754      1983.8347    
        78   0             -237.56943      51.892171      49.551536      49.81629       56.308687     -2.5449793      19.169501      0.27556215     8.7227234      7.5538778      30.099729      1983.2828    
        79   0             -237.57141     -107.80611     -102.93884     -102.8848      -117.5947      -2.4496254      19.11347       0.093854795    8.7234974      7.5545518      30.102754      1983.8351    
        80   0             -237.57236      43.267531      41.426673      41.801565      46.574356     -2.439942       19.081794     -0.0037887791   8.7227275      7.5538856      30.099729      1983.2858    
        81   0             -237.5747      -118.60653     -113.17352     -113.20259     -129.44348     -2.2700262      18.961741     -0.30462865     8.7235105      7.5545701      30.102754      1983.8429    
        82   0             -237.57555      32.668222      31.33894       31.659146      35.006579     -2.272085       18.940787     -0.37767726     8.7227418      7.5539044      30.099729      1983.294     
        83   0             -237.57858     -131.6565      -125.67601     -125.72362     -143.56987     -2.0757611      18.80126      -0.73007475     8.7235303      7.5545946      30.102754      1983.8538    
        84   0             -237.57933      20.034893      19.230305      19.526423      21.347952     -2.0795856      18.782121     -0.79437131     8.7227607      7.553928       30.099729      1983.3045    
        85   0             -237.58413     -149.58794     -142.86671     -142.98497     -162.91214     -1.7747122      18.556521     -1.3416187      8.7235544      7.5546266      30.102754      1983.8677    
        86   0             -237.58478      2.6315586      2.5367479      2.7744309      2.5834971     -1.7856224      18.543936     -1.3887691      8.7227833      7.5539584      30.099729      1983.3176    
        87   0             -237.61569     -234.07144     -224.2945      -224.84815     -253.07168      0.16674564     17.096868     -4.5077887      8.7235861      7.5547187      30.10254       1983.885     
        88   0             -237.61605     -79.842455     -76.967767     -77.101093     -85.458506      0.12950812     17.108566     -4.5015099      8.7228067      7.5540421      30.099516      1983.3308    
        89   0             -237.61686      75.235439      71.226125      71.572936      82.907254      0.10973376     17.110645     -4.5058994      8.7220145      7.5533549      30.096492      1982.7711    
        90   0             -237.61778     -78.284887     -75.321119     -75.316294     -84.217249      0.20930182     17.058228     -4.56877        8.7227678      7.5540106      30.099516      1983.3137    
        91   0             -237.61868      76.12487       72.205267      72.580973      83.588371      0.22833245     17.027441     -4.6272491      8.7219792      7.5533279      30.096492      1982.756     
        92   0             -237.61957     -77.91626      -74.894339     -74.895324     -83.959118      0.33653336     16.967395     -4.7005614      8.7227373      7.553988       30.099516      1983.3008    
        93   0             -237.62046      76.268881      72.375065      72.746315      83.685261      0.35525813     16.93718      -4.7564015      8.7219511      7.5533074      30.096492      1982.7442    
        94   0             -237.62134     -77.83135      -74.804012     -74.808387     -83.88165       0.46247784     16.878095     -4.8253549      8.7227102      7.5539684      30.099516      1983.2895    
        95   0             -237.62221      76.392021      72.487761      72.856999      83.831303      0.48078652     16.848487     -4.8786434      8.7219243      7.5532879      30.096492      1982.733     
        96   0             -237.62308     -77.61789      -74.610908     -74.618011     -83.624751      0.58757285     16.789842     -4.9442595      8.7226832      7.5539488      30.099516      1983.2783    
        97   0             -237.62393      76.726683      72.791651      73.159332      84.229066      0.60566214     16.760672     -4.995331       8.7218969      7.5532679      30.096492      1982.7215    
        98   0             -237.62478     -77.149332     -74.179998     -74.189197     -83.0788        0.71179254     16.702611     -5.0575133      8.7226553      7.5539283      30.099516      1983.2665    
        99   0             -237.62563      77.342605      73.36111       73.727939      84.938764      0.72984501     16.673743     -5.1065883      8.7218683      7.5532468      30.096492      1982.7095    
       100   0             -237.62646     -76.390371     -73.473241     -73.48378      -82.21409       0.8350811      16.616416     -5.165249       8.7226262      7.5539067      30.099516      1983.2542    
Loop time of 0.326427 on 48 procs for 100 steps with 60 atoms

97.5% CPU use with 48 MPI tasks x no OpenMP threads

Minimization stats:
  Stopping criterion = max iterations
  Energy initial, next-to-last, final = 
     -237.334762482343  -237.625629994242  -237.626455439022
  Force two-norm initial, final = 19.633788 0.88686923
  Force max component initial, final = 11.517528 0.18111913
  Final line search alpha, max atom move = 0.0010073831 0.00018245635
  Iterations, force evaluations = 100 100

MPI task timing breakdown:
Section |  min time  |  avg time  |  max time  |%varavg| %total
---------------------------------------------------------------
Pair    | 1.3202e-05 | 0.0054498  | 0.012853   |   4.2 |  1.67
Neigh   | 0          | 0          | 0          |   0.0 |  0.00
Comm    | 0.0050038  | 0.011097   | 0.017709   |   3.3 |  3.40
Output  | 0.0039672  | 0.01027    | 0.30217    |  42.0 |  3.15
Modify  | 0          | 0          | 0          |   0.0 |  0.00
Other   |            | 0.2996     |            |       | 91.78

Nlocal:           1.25 ave           3 max           0 min
Histogram: 7 0 0 23 0 0 17 0 0 1
Nghost:        175.333 ave         183 max         156 min
Histogram: 5 5 2 0 0 0 0 0 13 23
Neighs:              0 ave           0 max           0 min
Histogram: 48 0 0 0 0 0 0 0 0 0
FullNghs:           46 ave         108 max           0 min
Histogram: 7 0 3 20 0 0 8 9 0 1

Total # of neighbors = 2208
Ave neighs/atom = 36.8
Neighbor list builds = 0
Dangerous builds = 0
Displacing atoms ...
System init for write_restart ...
Reading restart file ...
  restart file = 24 Mar 2022, LAMMPS = 24 Mar 2022
  restoring atom style atomic from restart
  triclinic box = (0.02858141 0.024806646 0.0716689) to (8.7512076 7.5787134 30.171185) with tilt (-4.3612507 0 0)
  3 by 2 by 8 MPI processor grid
  pair style nep stores no restart info
  60 atoms
  read_restart CPU = 0.102 seconds
Use the NEP4 potential with 3 atom types.
    type 0( Bi with Z = 83).
    type 1( Sb with Z = 51).
    type 2( Te with Z = 52).
    has universal ZBL with inner cutoff 1.25 A and outer cutoff 2.5 A.
    radial cutoff = 6 A.
    angular cutoff = 4 A.
    n_max_radial = 6.
    n_max_angular = 6.
    basis_size_radial = 8.
    basis_size_angular = 8.
    l_max_3body = 6.
    l_max_4body = 2.
    l_max_5body = 1.
    ANN = 56-60-1.
    number of neural network parameters = 10441.
    number of descriptor parameters = 1134.
    total number of parameters = 11575.
Changing box ...
  triclinic box = (0.02858141 0.024806646 0.0716689) to (8.7511989 7.5787134 30.171185) with tilt (-4.3612507 0 0)
  triclinic box = (0.02858141 0.024806646 0.0716689) to (8.7511989 7.5787134 30.171185) with tilt (-4.3612464 0 0)
  triclinic box = (0.02858141 0.024806646 0.0716689) to (8.7511989 7.5787134 30.171185) with tilt (-4.3612464 0 0)
Neighbor list info ...
  update every 1 steps, delay 0 steps, check yes
  max neighbors/atom: 2000, page size: 100000
  master list distance cutoff = 7
  ghost atom cutoff = 7
  1 neighbor lists, perpetual/occasional/extra = 1 0 0
  (1) pair nep, perpetual
      attributes: full, newton on
      pair build: full/nsq
      stencil: none
      bin: none
Setting up cg style minimization ...
  Unit style    : metal
  Current step  : 100
Per MPI rank memory allocation (min/avg/max) = 4.085 | 4.085 | 4.085 Mbytes
   Step          Temp          PotEng         Press           Pxx            Pyy            Pzz            Pxy            Pxz            Pyz             Lx             Ly             Lz           Volume    
       100   0             -237.62645     -75.806428     -72.425859     -73.299995     -81.69343       0.8755181      16.528215     -5.6663625      8.7226175      7.5539067      30.099516      1983.2523    
       101   0             -237.66318     -124.28603     -134.53123     -128.2546      -110.07226      1.8350029      16.443194     -3.9497025      8.7226175      7.5539067      30.099516      1983.2523    
       102   0             -237.68947     -86.925471     -129.45911     -117.87047     -13.44684       2.8138675      16.099887     -0.84762583     8.7226175      7.5539067      30.099516      1983.2523    
       103   0             -237.70817      17.290153     -73.097446     -58.995431      183.96334      3.166808       15.546304      1.9511856      8.7226175      7.5539067      30.099516      1983.2523    
       104   0             -237.7218       176.81061      25.048467      37.246244      468.13713      2.1708421      14.689239      2.3057853      8.7226175      7.5539067      30.099516      1983.2523    
       105   0             -237.72988      333.89264      127.70629      134.15908      739.81256     -0.15323696     13.651098     -0.44402531     8.7226175      7.5539067      30.099516      1983.2523    
       106   0             -237.7343       452.91197      207.6694       209.20822      941.85829     -2.8145314      13.151975     -1.5908288      8.7226175      7.5539067      30.099516      1983.2523    
       107   0             -237.73693      525.83464      255.93189      253.84683      1067.7252     -5.4332338      13.075093     -0.32414347     8.7226175      7.5539067      30.099516      1983.2523    
       108   0             -237.73873      559.34084      276.90174      270.37524      1130.7456     -7.2256106      12.1872        0.91246815     8.7226175      7.5539067      30.099516      1983.2523    
       109   0             -237.74015      516.17178      240.42955      228.02703      1080.0588     -8.3869883      11.297697      1.6340276      8.7226175      7.5539067      30.099516      1983.2523    
       110   0             -237.74107      588.83936      299.0736       281.34108      1186.1034     -7.9315061      8.3791505      1.7479662      8.7226175      7.5539067      30.099516      1983.2523    
       111   0             -237.74205      422.18894      164.24873      140.37416      961.94393     -9.1250727      8.5343731      2.2315662      8.7226175      7.5539067      30.099516      1983.2523    
       112   0             -237.74272      457.86141      192.10843      160.73782      1020.738      -10.535796      8.2908415      2.1943423      8.7226175      7.5539067      30.099516      1983.2523    
       113   0             -237.74319      351.12692      103.31513      65.900098      884.16555     -10.556131      5.8164968      2.4926536      8.7226175      7.5539067      30.099516      1983.2523    
       114   0             -237.74346      326.12079      80.234284      35.000273      863.12781     -11.350273      4.3197613      2.3679339      8.7226175      7.5539067      30.099516      1983.2523    
       115   0             -237.74349      363.84121      110.82315      64.970667      915.72981     -11.933467      5.0148064      1.819285       8.7226175      7.5539067      30.099516      1983.2523    
       116   0             -237.74356      349.70765      99.099918      54.009111      896.01392     -13.158959      6.3697036      1.6549394      8.7226175      7.5539067      30.099516      1983.2523    
       117   0             -237.74362      381.45568      124.37467      80.880828      939.11156     -12.74743       5.4489016      1.8974552      8.7226175      7.5539067      30.099516      1983.2523    
       118   0             -237.74363      375.95378      120.67971      76.309257      930.87237     -12.228262      4.4766764      1.1975082      8.7226175      7.5539067      30.099516      1983.2523    
       119   0             -237.74364      352.00189      101.95508      57.245706      896.80488     -12.45585       4.894517       2.1906391      8.7226175      7.5539067      30.099516      1983.2523    
       120   0             -237.74364      349.5088       99.080073      55.086396      894.35994     -13.318131      6.5058876      4.2698943      8.7226175      7.5539067      30.099516      1983.2523    
       121   0             -237.74365      351.74763      100.59159      55.142007      899.5093      -13.175676      6.0077379      3.6601677      8.7226175      7.5539067      30.099516      1983.2523    
       122   0             -237.74365      359.606        106.94743      60.010362      911.8602      -12.8021        4.996425       2.2463029      8.7226175      7.5539067      30.099516      1983.2523    
       123   0             -237.74365      358.52028      105.86017      58.918704      910.78197     -12.941308      5.2355636      2.2758307      8.7226175      7.5539067      30.099516      1983.2523    
       124   0             -237.74365      357.88576      105.22853      58.417172      910.01158     -13.026387      5.4105928      2.4447907      8.7226175      7.5539067      30.099516      1983.2523    
       125   0             -237.74365      356.72425      104.32188      57.522765      908.32811     -12.915552      5.2154273      2.4623742      8.7226175      7.5539067      30.099516      1983.2523    
       126   0             -237.74365      356.35336      104.04881      57.222759      907.78851     -12.892995      5.190241       2.4350508      8.7226175      7.5539067      30.099516      1983.2523    
       127   0             -237.74365      356.35703      104.09688      57.189142      907.78506     -12.908137      5.2405127      2.3611157      8.7226175      7.5539067      30.099516      1983.2523    
       128   0             -237.74365      356.53114      104.25963      57.284998      908.04879     -12.906216      5.2611916      2.3337076      8.7226175      7.5539067      30.099516      1983.2523    
       129   0             -237.74365      356.7867       104.37703      57.539835      908.44325     -12.884806      5.2356073      2.5298698      8.7226175      7.5539067      30.099516      1983.2523    
       130   0             -237.74365      356.67984      104.31861      57.414737      908.30618     -12.905879      5.2835826      2.482756       8.7226175      7.5539067      30.099516      1983.2523    
       131   0             -237.74365      356.63246      104.30753      57.348163      908.24169     -12.903544      5.2801375      2.4369311      8.7226175      7.5539067      30.099516      1983.2523    
       132   0             -237.74365      356.55478      104.24464      57.283888      908.13581     -12.889329      5.250441       2.4407064      8.7226175      7.5539067      30.099516      1983.2523    
       133   0             -237.74365      356.6031       104.27505      57.334509      908.19974     -12.884696      5.2428751      2.4642196      8.7226175      7.5539067      30.099516      1983.2523    
       134   0             -237.74365      356.56788      104.2582       57.297059      908.14838     -12.888512      5.2537259      2.4497876      8.7226175      7.5539067      30.099516      1983.2523    
       135   0             -237.74365      356.62194      104.30798      57.334905      908.22293     -12.89027       5.258147       2.4384079      8.7226175      7.5539067      30.099516      1983.2523    
       136   0             -237.74365      356.59851      104.28817      57.317888      908.18946     -12.890415      5.2590654      2.441469       8.7226175      7.5539067      30.099516      1983.2523    
       137   0             -237.74365      356.60425      104.28632      57.32921       908.19722     -12.890796      5.2606259      2.4576219      8.7226175      7.5539067      30.099516      1983.2523    
       138   0             -237.74365      356.59853      104.28446      57.322381      908.18873     -12.892478      5.2646603      2.452297       8.7226175      7.5539067      30.099516      1983.2523    
       139   0             -237.74365      356.59981      104.28814      57.321949      908.18936     -12.892121      5.2645495      2.447472       8.7226175      7.5539067      30.099516      1983.2523    
       140   0             -237.74365      356.59913      104.28738      57.322515      908.18748     -12.889792      5.2602809      2.4487185      8.7226175      7.5539067      30.099516      1983.2523    
       141   0             -237.74365      356.59893      104.28728      57.322494      908.18703     -12.889512      5.2598681      2.4489332      8.7226175      7.5539067      30.099516      1983.2523    
       142   0             -237.74365      356.6004       104.28885      57.323177      908.18917     -12.889876      5.2606705      2.4478535      8.7226175      7.5539067      30.099516      1983.2523    
       143   0             -237.74365      356.60004      104.2885       57.32299       908.18862     -12.890217      5.2612622      2.4478504      8.7226175      7.5539067      30.099516      1983.2523    
       144   0             -237.74365      356.60029      104.28812      57.323849      908.18891     -12.890448      5.2615447      2.4491237      8.7226175      7.5539067      30.099516      1983.2523    
       145   0             -237.74365      356.5999       104.28767      57.323726      908.1883      -12.890613      5.2618289      2.4494317      8.7226175      7.5539067      30.099516      1983.2523    
       146   0             -237.74365      356.60005      104.28797      57.323673      908.18851     -12.890586      5.2617462      2.4490318      8.7226175      7.5539067      30.099516      1983.2523    
       147   0             -237.74365      356.59979      104.2879       57.323323      908.18816     -12.890494      5.2615304      2.4487302      8.7226175      7.5539067      30.099516      1983.2523    
       148   0             -237.74365      356.59991      104.28795      57.323433      908.18834     -12.890412      5.2613404      2.4487947      8.7226175      7.5539067      30.099516      1983.2523    
       149   0             -237.74365      356.59975      104.2878       57.323302      908.18815     -12.890381      5.2612536      2.4488004      8.7226175      7.5539067      30.099516      1983.2523    
       150   0             -237.74365      356.59977      104.28787      57.323222      908.1882      -12.890424      5.2613068      2.448609       8.7226175      7.5539067      30.099516      1983.2523    
       151   0             -237.74365      356.59977      104.28787      57.323226      908.18822     -12.890467      5.2613638      2.4485922      8.7226175      7.5539067      30.099516      1983.2523    
       152   0             -237.74365      356.59973      104.28775      57.323266      908.18816     -12.890502      5.2614143      2.4487349      8.7226175      7.5539067      30.099516      1983.2523    
       153   0             -237.74365      356.59978      104.28778      57.323332      908.18824     -12.890519      5.2614496      2.448775       8.7226175      7.5539067      30.099516      1983.2523    
       154   0             -237.74365      356.59972      104.28772      57.323281      908.18815     -12.890527      5.261464       2.4487777      8.7226175      7.5539067      30.099516      1983.2523    
       155   0             -237.74365      356.59977      104.28777      57.323317      908.18822     -12.890523      5.2614568      2.448769       8.7226175      7.5539067      30.099516      1983.2523    
       156   0             -237.74365      356.59974      104.28775      57.323293      908.18818     -12.890516      5.2614441      2.4487664      8.7226175      7.5539067      30.099516      1983.2523    
       157   0             -237.74365      356.59975      104.28776      57.323298      908.1882      -12.890515      5.261442       2.4487604      8.7226175      7.5539067      30.099516      1983.2523    
       158   0             -237.74365      356.59975      104.28776      57.323295      908.18819     -12.890515      5.2614407      2.4487562      8.7226175      7.5539067      30.099516      1983.2523    
       159   0             -237.74365      356.59975      104.28776      57.323297      908.1882      -12.890515      5.2614403      2.4487572      8.7226175      7.5539067      30.099516      1983.2523    
       160   0             -237.74365      356.59975      104.28776      57.323298      908.18819     -12.890517      5.2614447      2.4487631      8.7226175      7.5539067      30.099516      1983.2523    
       161   0             -237.74365      356.59975      104.28776      57.323299      908.18819     -12.890519      5.2614485      2.4487648      8.7226175      7.5539067      30.099516      1983.2523    
       162   0             -237.74365      356.59975      104.28776      57.323298      908.18819     -12.890518      5.2614477      2.4487638      8.7226175      7.5539067      30.099516      1983.2523    
       163   0             -237.74365      356.59975      104.28776      57.323298      908.18819     -12.890517      5.2614459      2.448763       8.7226175      7.5539067      30.099516      1983.2523    
       164   0             -237.74365      356.59975      104.28776      57.323299      908.18819     -12.890517      5.2614448      2.4487625      8.7226175      7.5539067      30.099516      1983.2523    
       165   0             -237.74365      356.59975      104.28776      57.323298      908.18819     -12.890516      5.2614444      2.4487618      8.7226175      7.5539067      30.099516      1983.2523    
       166   0             -237.74365      356.59975      104.28776      57.323298      908.18819     -12.890516      5.2614442      2.4487614      8.7226175      7.5539067      30.099516      1983.2523    
       167   0             -237.74365      356.59975      104.28776      57.323298      908.18819     -12.890516      5.2614439      2.4487611      8.7226175      7.5539067      30.099516      1983.2523    
       168   0             -237.74365      356.59975      104.28776      57.323298      908.18819     -12.890516      5.2614441      2.4487614      8.7226175      7.5539067      30.099516      1983.2523    
       169   0             -237.74365      356.59975      104.28776      57.323298      908.18819     -12.890516      5.2614442      2.4487615      8.7226175      7.5539067      30.099516      1983.2523    
       170   0             -237.74365      356.59975      104.28776      57.323298      908.18819     -12.890516      5.2614442      2.4487614      8.7226175      7.5539067      30.099516      1983.2523    
       171   0             -237.74365      356.59975      104.28776      57.323298      908.18819     -12.890516      5.2614442      2.4487615      8.7226175      7.5539067      30.099516      1983.2523    
       172   0             -237.74365      356.59975      104.28776      57.323298      908.18819     -12.890516      5.2614442      2.4487615      8.7226175      7.5539067      30.099516      1983.2523    
       173   0             -237.74365      356.59975      104.28776      57.323298      908.18819     -12.890516      5.2614442      2.4487615      8.7226175      7.5539067      30.099516      1983.2523    
       174   0             -237.74365      356.59975      104.28776      57.323298      908.18819     -12.890516      5.2614442      2.4487614      8.7226175      7.5539067      30.099516      1983.2523    
       175   0             -237.74365      356.59975      104.28776      57.323298      908.18819     -12.890516      5.2614442      2.4487614      8.7226175      7.5539067      30.099516      1983.2523    
       176   0             -237.74365      356.59975      104.28776      57.323298      908.18819     -12.890516      5.2614442      2.4487614      8.7226175      7.5539067      30.099516      1983.2523    
       177   0             -237.74365      356.59975      104.28776      57.323298      908.18819     -12.890516      5.2614442      2.4487614      8.7226175      7.5539067      30.099516      1983.2523    
       178   0             -237.74365      356.59975      104.28776      57.323298      908.18819     -12.890516      5.2614442      2.4487614      8.7226175      7.5539067      30.099516      1983.2523    
       179   0             -237.74365      356.59975      104.28776      57.323298      908.18819     -12.890516      5.2614442      2.4487614      8.7226175      7.5539067      30.099516      1983.2523    
       180   0             -237.74365      356.59975      104.28776      57.323298      908.18819     -12.890516      5.2614442      2.4487614      8.7226175      7.5539067      30.099516      1983.2523    
       181   0             -237.74365      356.59975      104.28776      57.323298      908.18819     -12.890516      5.2614442      2.4487614      8.7226175      7.5539067      30.099516      1983.2523    
       182   0             -237.74365      356.59975      104.28776      57.323298      908.18819     -12.890516      5.2614442      2.4487614      8.7226175      7.5539067      30.099516      1983.2523    
       183   0             -237.74365      356.59975      104.28776      57.323298      908.18819     -12.890516      5.2614442      2.4487614      8.7226175      7.5539067      30.099516      1983.2523    
       184   0             -237.74365      356.59975      104.28776      57.323298      908.18819     -12.890516      5.2614442      2.4487614      8.7226175      7.5539067      30.099516      1983.2523    
       185   0             -237.74365      356.59975      104.28776      57.323298      908.18819     -12.890516      5.2614442      2.4487614      8.7226175      7.5539067      30.099516      1983.2523    
       186   0             -237.74365      356.59975      104.28776      57.323298      908.18819     -12.890516      5.2614442      2.4487614      8.7226175      7.5539067      30.099516      1983.2523    
       187   0             -237.74365      356.59975      104.28776      57.323298      908.18819     -12.890516      5.2614442      2.4487614      8.7226175      7.5539067      30.099516      1983.2523    
       188   0             -237.74365      356.59975      104.28776      57.323298      908.18819     -12.890516      5.2614442      2.4487614      8.7226175      7.5539067      30.099516      1983.2523    
       189   0             -237.74365      356.59975      104.28776      57.323298      908.18819     -12.890516      5.2614442      2.4487614      8.7226175      7.5539067      30.099516      1983.2523    
       190   0             -237.74365      356.59975      104.28776      57.323298      908.18819     -12.890516      5.2614442      2.4487614      8.7226175      7.5539067      30.099516      1983.2523    
       191   0             -237.74365      356.59975      104.28776      57.323298      908.18819     -12.890516      5.2614442      2.4487614      8.7226175      7.5539067      30.099516      1983.2523    
       192   0             -237.74365      356.59975      104.28776      57.323298      908.18819     -12.890516      5.2614442      2.4487614      8.7226175      7.5539067      30.099516      1983.2523    
       193   0             -237.74365      356.59975      104.28776      57.323298      908.18819     -12.890516      5.2614442      2.4487614      8.7226175      7.5539067      30.099516      1983.2523    
       194   0             -237.74365      356.59975      104.28776      57.323298      908.18819     -12.890516      5.2614442      2.4487614      8.7226175      7.5539067      30.099516      1983.2523    
       195   0             -237.74365      356.59975      104.28776      57.323298      908.18819     -12.890516      5.2614442      2.4487614      8.7226175      7.5539067      30.099516      1983.2523    
       196   0             -237.74365      356.59975      104.28776      57.323298      908.18819     -12.890516      5.2614442      2.4487614      8.7226175      7.5539067      30.099516      1983.2523    
       197   0             -237.74365      356.59975      104.28776      57.323298      908.18819     -12.890516      5.2614442      2.4487614      8.7226175      7.5539067      30.099516      1983.2523    
       198   0             -237.74365      356.59975      104.28776      57.323298      908.18819     -12.890516      5.2614442      2.4487614      8.7226175      7.5539067      30.099516      1983.2523    
       199   0             -237.74365      356.59975      104.28776      57.323298      908.18819     -12.890516      5.2614442      2.4487614      8.7226175      7.5539067      30.099516      1983.2523    
       200   0             -237.74365      356.59975      104.28776      57.323298      908.18819     -12.890516      5.2614442      2.4487614      8.7226175      7.5539067      30.099516      1983.2523    
Loop time of 0.045441 on 48 procs for 100 steps with 60 atoms

99.3% CPU use with 48 MPI tasks x no OpenMP threads

Minimization stats:
  Stopping criterion = max iterations
  Energy initial, next-to-last, final = 
     -237.626449916578  -237.743648164358  -237.743648164358
  Force two-norm initial, final = 0.87141496 3.6922358e-14
  Force max component initial, final = 0.18113983 1.1407542e-14
  Final line search alpha, max atom move = 1 1.1407542e-14
  Iterations, force evaluations = 100 186

MPI task timing breakdown:
Section |  min time  |  avg time  |  max time  |%varavg| %total
---------------------------------------------------------------
Pair    | 2.1036e-05 | 0.0094334  | 0.030161   |   6.6 | 20.76
Neigh   | 0          | 0          | 0          |   0.0 |  0.00
Comm    | 0.0059803  | 0.023708   | 0.036319   |   4.6 | 52.17
Output  | 0.0036507  | 0.0037168  | 0.0041889  |   0.1 |  8.18
Modify  | 0          | 0          | 0          |   0.0 |  0.00
Other   |            | 0.008583   |            |       | 18.89

Nlocal:           1.25 ave           4 max           0 min
Histogram: 9 0 21 0 0 16 0 1 0 1
Nghost:        175.333 ave         183 max         156 min
Histogram: 5 4 3 0 0 0 0 1 11 24
Neighs:              0 ave           0 max           0 min
Histogram: 48 0 0 0 0 0 0 0 0 0
FullNghs:           52 ave         170 max           0 min
Histogram: 9 0 21 0 10 6 0 1 0 1

Total # of neighbors = 2496
Ave neighs/atom = 41.6
Neighbor list builds = 0
Dangerous builds = 0
Reading restart file ...
  restart file = 24 Mar 2022, LAMMPS = 24 Mar 2022
  restoring atom style atomic from restart
  triclinic box = (0.02858141 0.024806646 0.0716689) to (8.7512076 7.5787134 30.171185) with tilt (-4.3612507 0 0)
  3 by 2 by 8 MPI processor grid
  pair style nep stores no restart info
  60 atoms
  read_restart CPU = 0.053 seconds
Use the NEP4 potential with 3 atom types.
    type 0( Bi with Z = 83).
    type 1( Sb with Z = 51).
    type 2( Te with Z = 52).
    has universal ZBL with inner cutoff 1.25 A and outer cutoff 2.5 A.
    radial cutoff = 6 A.
    angular cutoff = 4 A.
    n_max_radial = 6.
    n_max_angular = 6.
    basis_size_radial = 8.
    basis_size_angular = 8.
    l_max_3body = 6.
    l_max_4body = 2.
    l_max_5body = 1.
    ANN = 56-60-1.
    number of neural network parameters = 10441.
    number of descriptor parameters = 1134.
    total number of parameters = 11575.
Changing box ...
  triclinic box = (0.02858141 0.024806646 0.0716689) to (8.7512163 7.5787134 30.171185) with tilt (-4.3612507 0 0)
  triclinic box = (0.02858141 0.024806646 0.0716689) to (8.7512163 7.5787134 30.171185) with tilt (-4.3612551 0 0)
  triclinic box = (0.02858141 0.024806646 0.0716689) to (8.7512163 7.5787134 30.171185) with tilt (-4.3612551 0 0)
Neighbor list info ...
  update every 1 steps, delay 0 steps, check yes
  max neighbors/atom: 2000, page size: 100000
  master list distance cutoff = 7
  ghost atom cutoff = 7
  1 neighbor lists, perpetual/occasional/extra = 1 0 0
  (1) pair nep, perpetual
      attributes: full, newton on
      pair build: full/nsq
      stencil: none
      bin: none
Setting up cg style minimization ...
  Unit style    : metal
  Current step  : 100
Per MPI rank memory allocation (min/avg/max) = 4.085 | 4.085 | 4.085 Mbytes
   Step          Temp          PotEng         Press           Pxx            Pyy            Pzz            Pxy            Pxz            Pyz             Lx             Ly             Lz           Volume    
       100   0             -237.62645     -76.871145     -74.231814     -73.755679     -82.625942      0.875539       16.528313     -5.0660421      8.7226349      7.5539067      30.099516      1983.2562    
       101   0             -237.66318     -125.27828     -136.26029     -128.67276     -110.90179      1.8350004      16.443273     -3.3925895      8.7226349      7.5539067      30.099516      1983.2562    
       102   0             -237.68947     -87.864966     -131.12917     -118.26539     -14.200341      2.8138649      16.099924     -0.32962882     8.7226349      7.5539067      30.099516      1983.2562    
       103   0             -237.70817      16.391101     -74.720156     -59.375579      183.26904      3.1668191      15.546265      2.4339354      8.7226349      7.5539067      30.099516      1983.2562    
       104   0             -237.7218       175.94897      23.468803      36.87971       467.49838      2.1708748      14.689068      2.7573202      8.7226349      7.5539067      30.099516      1983.2562    
       105   0             -237.72988      333.06113      126.15888      133.80656      739.21797     -0.15312665     13.650769     -0.011163271    8.7226349      7.5539067      30.099516      1983.2562    
       106   0             -237.7343       452.10431      206.14553      208.86809      941.29931     -2.8143522      13.151477     -1.1688198      8.7226349      7.5539067      30.099516      1983.2562    
       107   0             -237.73693      525.04389      254.42528      253.51473      1067.1917     -5.4330204      13.07445       0.089008068    8.7226349      7.5539067      30.099516      1983.2562    
       108   0             -237.73874      558.56163      275.4073       270.0485       1130.2291     -7.2253944      12.186472      1.3191636      8.7226349      7.5539067      30.099516      1983.2562    
       109   0             -237.74015      515.39087      238.93554      227.69713      1079.5399     -8.3867229      11.296895      2.0375139      8.7226349      7.5539067      30.099516      1983.2562    
       110   0             -237.74107      588.08271      297.599        281.03126      1185.6179     -7.9311934      8.3783676      2.1519163      8.7226349      7.5539067      30.099516      1983.2562    
       111   0             -237.74205      421.45934      162.79674      140.08541      961.49587     -9.124301       8.5327299      2.6346495      8.7226349      7.5539067      30.099516      1983.2562    
       112   0             -237.74272      457.19133      190.70466      160.49789      1020.3714     -10.535916      8.2907056      2.5980823      8.7226349      7.5539067      30.099516      1983.2562    
       113   0             -237.74319      350.53494      101.97592      65.721146      883.90776     -10.559488      5.8216076      2.8966471      8.7226349      7.5539067      30.099516      1983.2562    
       114   0             -237.74346      325.80062      79.119809      35.042838      863.23922     -11.35457       4.3264822      2.769709       8.7226349      7.5539067      30.099516      1983.2562    
       115   0             -237.74349      363.34274      109.55607      64.862803      915.60935     -11.939483      5.0198779      2.2165936      8.7226349      7.5539067      30.099516      1983.2562    
       116   0             -237.74356      348.41534      97.189448      53.291912      894.76466     -13.168252      6.3808274      2.0763698      8.7226349      7.5539067      30.099516      1983.2562    
       117   0             -237.74362      380.86098      123.03409      80.701971      938.84689     -12.744505      5.4446416      2.2993596      8.7226349      7.5539067      30.099516      1983.2562    
       118   0             -237.74363      374.5649       118.72133      75.486862      929.48652     -12.214112      4.449099       1.5857984      8.7226349      7.5539067      30.099516      1983.2562    
       119   0             -237.74364      351.24438      100.47252      56.94599       896.31463     -12.470292      4.9229268      2.6308236      8.7226349      7.5539067      30.099516      1983.2562    
       120   0             -237.74364      348.70881      97.568122      54.736631      893.82168     -13.319659      6.5100533      4.6787278      8.7226349      7.5539067      30.099516      1983.2562    
       121   0             -237.74365      350.99024      99.121569      54.820975      899.02819     -13.168381      5.9917204      4.0499217      8.7226349      7.5539067      30.099516      1983.2562    
       122   0             -237.74365      358.83345      105.4613       59.69087       911.34818     -12.801415      4.9964034      2.6534298      8.7226349      7.5539067      30.099516      1983.2562    
       123   0             -237.74365      357.74907      104.37581      58.600048      910.27134     -12.939523      5.2328939      2.681299       8.7226349      7.5539067      30.099516      1983.2562    
       124   0             -237.74365      357.11239      103.74318      58.096579      909.49742     -13.025776      5.4107851      2.8492733      8.7226349      7.5539067      30.099516      1983.2562    
       125   0             -237.74365      355.93978      102.82783      57.192707      907.79879     -12.91273       5.2111137      2.8664632      8.7226349      7.5539067      30.099516      1983.2562    
       126   0             -237.74365      355.58261      102.5655       56.903479      907.27885     -12.891898      5.1893999      2.8390317      8.7226349      7.5539067      30.099516      1983.2562    
       127   0             -237.74365      355.58618      102.61421      56.868881      907.27546     -12.90721       5.2402113      2.76385        8.7226349      7.5539067      30.099516      1983.2562    
       128   0             -237.74365      355.7633       102.7782       56.968225      907.54348     -12.905237      5.2605294      2.7386027      8.7226349      7.5539067      30.099516      1983.2562    
       129   0             -237.74365      356.01515      102.89233      57.220111      907.93301     -12.883451      5.2340002      2.9350305      8.7226349      7.5539067      30.099516      1983.2562    
       130   0             -237.74365      355.90543      102.8339       57.090779      907.79159     -12.90549       5.2841577      2.8839529      8.7226349      7.5539067      30.099516      1983.2562    
       131   0             -237.74365      355.85954      102.8226       57.026578      907.72944     -12.901668      5.2774814      2.8406465      8.7226349      7.5539067      30.099516      1983.2562    
       132   0             -237.74365      355.78355      102.76047      56.964515      907.62567     -12.888055      5.2490404      2.8454456      8.7226349      7.5539067      30.099516      1983.2562    
       133   0             -237.74365      355.83069      102.7901       57.014137      907.68784     -12.883471      5.2416043      2.8687831      8.7226349      7.5539067      30.099516      1983.2562    
       134   0             -237.74365      355.79957      102.77687      56.979668      907.64217     -12.88738       5.2526653      2.8537239      8.7226349      7.5539067      30.099516      1983.2562    
       135   0             -237.74365      355.85229      102.82533      57.016705      907.71483     -12.88909       5.256965       2.8426644      8.7226349      7.5539067      30.099516      1983.2562    
       136   0             -237.74365      355.82716      102.80406      56.998428      907.679       -12.889232      5.2578791      2.845986       8.7226349      7.5539067      30.099516      1983.2562    
       137   0             -237.74365      355.83392      102.80305      57.010568      907.68815     -12.889587      5.2593756      2.8620823      8.7226349      7.5539067      30.099516      1983.2562    
       138   0             -237.74365      355.8279       102.80102      57.003456      907.67923     -12.891293      5.2634651      2.8566188      8.7226349      7.5539067      30.099516      1983.2562    
       139   0             -237.74365      355.8295       102.8049       57.003322      907.68027     -12.890899      5.2632844      2.8519001      8.7226349      7.5539067      30.099516      1983.2562    
       140   0             -237.74365      355.82861      102.80397      57.003734      907.67813     -12.888572      5.2590126      2.8531604      8.7226349      7.5539067      30.099516      1983.2562    
       141   0             -237.74365      355.82855      102.80399      57.003796      907.67787     -12.888313      5.2586404      2.8533357      8.7226349      7.5539067      30.099516      1983.2562    
       142   0             -237.74365      355.82995      102.8055       57.004439      907.67992     -12.88868       5.2594481      2.8522678      8.7226349      7.5539067      30.099516      1983.2562    
       143   0             -237.74365      355.82959      102.80513      57.00426       907.67936     -12.889014      5.2600228      2.8523007      8.7226349      7.5539067      30.099516      1983.2562    
       144   0             -237.74365      355.82983      102.80476      57.005102      907.67964     -12.889244      5.2603074      2.8535491      8.7226349      7.5539067      30.099516      1983.2562    
       145   0             -237.74365      355.82947      102.80433      57.005004      907.67907     -12.889409      5.2605899      2.853861       8.7226349      7.5539067      30.099516      1983.2562    
       146   0             -237.74365      355.82959      102.80461      57.004917      907.67923     -12.889378      5.2604983      2.8534457      8.7226349      7.5539067      30.099516      1983.2562    
       147   0             -237.74365      355.82935      102.80454      57.004589      907.67891     -12.889289      5.2602896      2.8531594      8.7226349      7.5539067      30.099516      1983.2562    
       148   0             -237.74365      355.82944      102.80458      57.004681      907.67906     -12.889206      5.2600974      2.8532251      8.7226349      7.5539067      30.099516      1983.2562    
       149   0             -237.74365      355.82931      102.80446      57.004574      907.67891     -12.889176      5.2600134      2.8532277      8.7226349      7.5539067      30.099516      1983.2562    
       150   0             -237.74365      355.82931      102.80451      57.004481      907.67894     -12.88922       5.2600671      2.8530348      8.7226349      7.5539067      30.099516      1983.2562    
       151   0             -237.74365      355.82932      102.80451      57.004491      907.67896     -12.889263      5.2601243      2.8530233      8.7226349      7.5539067      30.099516      1983.2562    
       152   0             -237.74365      355.82928      102.8044       57.004534      907.67891     -12.889297      5.260174       2.8531642      8.7226349      7.5539067      30.099516      1983.2562    
       153   0             -237.74365      355.82933      102.80442      57.004594      907.67898     -12.889315      5.2602098      2.8532045      8.7226349      7.5539067      30.099516      1983.2562    
       154   0             -237.74365      355.82927      102.80437      57.004545      907.67889     -12.889322      5.2602236      2.8532062      8.7226349      7.5539067      30.099516      1983.2562    
       155   0             -237.74365      355.82932      102.80442      57.004583      907.67897     -12.889318      5.2602156      2.8531979      8.7226349      7.5539067      30.099516      1983.2562    
       156   0             -237.74365      355.82929      102.80439      57.004557      907.67893     -12.889311      5.2602035      2.8531953      8.7226349      7.5539067      30.099516      1983.2562    
       157   0             -237.74365      355.8293       102.80441      57.004563      907.67894     -12.88931       5.2602015      2.8531892      8.7226349      7.5539067      30.099516      1983.2562    
       158   0             -237.74365      355.8293       102.80441      57.004559      907.67894     -12.88931       5.2602         2.853185       8.7226349      7.5539067      30.099516      1983.2562    
       159   0             -237.74365      355.8293       102.80441      57.004562      907.67894     -12.88931       5.2601997      2.8531862      8.7226349      7.5539067      30.099516      1983.2562    
       160   0             -237.74365      355.8293       102.8044       57.004563      907.67894     -12.889312      5.2602041      2.8531921      8.7226349      7.5539067      30.099516      1983.2562    
       161   0             -237.74365      355.8293       102.8044       57.004563      907.67894     -12.889314      5.2602079      2.8531937      8.7226349      7.5539067      30.099516      1983.2562    
       162   0             -237.74365      355.8293       102.8044       57.004563      907.67894     -12.889314      5.260207       2.8531927      8.7226349      7.5539067      30.099516      1983.2562    
       163   0             -237.74365      355.8293       102.8044       57.004563      907.67894     -12.889313      5.2602052      2.8531919      8.7226349      7.5539067      30.099516      1983.2562    
       164   0             -237.74365      355.8293       102.8044       57.004563      907.67894     -12.889312      5.2602042      2.8531914      8.7226349      7.5539067      30.099516      1983.2562    
       165   0             -237.74365      355.8293       102.8044       57.004563      907.67894     -12.889312      5.2602038      2.8531906      8.7226349      7.5539067      30.099516      1983.2562    
       166   0             -237.74365      355.8293       102.8044       57.004563      907.67894     -12.889312      5.2602036      2.8531903      8.7226349      7.5539067      30.099516      1983.2562    
       167   0             -237.74365      355.8293       102.8044       57.004563      907.67894     -12.889312      5.2602033      2.85319        8.7226349      7.5539067      30.099516      1983.2562    
       168   0             -237.74365      355.8293       102.8044       57.004563      907.67894     -12.889312      5.2602035      2.8531903      8.7226349      7.5539067      30.099516      1983.2562    
       169   0             -237.74365      355.8293       102.8044       57.004563      907.67894     -12.889312      5.2602036      2.8531904      8.7226349      7.5539067      30.099516      1983.2562    
       170   0             -237.74365      355.8293       102.8044       57.004563      907.67894     -12.889312      5.2602036      2.8531903      8.7226349      7.5539067      30.099516      1983.2562    
       171   0             -237.74365      355.8293       102.8044       57.004563      907.67894     -12.889312      5.2602036      2.8531904      8.7226349      7.5539067      30.099516      1983.2562    
       172   0             -237.74365      355.8293       102.8044       57.004563      907.67894     -12.889312      5.2602036      2.8531904      8.7226349      7.5539067      30.099516      1983.2562    
       173   0             -237.74365      355.8293       102.8044       57.004563      907.67894     -12.889312      5.2602036      2.8531904      8.7226349      7.5539067      30.099516      1983.2562    
       174   0             -237.74365      355.8293       102.8044       57.004563      907.67894     -12.889312      5.2602036      2.8531903      8.7226349      7.5539067      30.099516      1983.2562    
       175   0             -237.74365      355.8293       102.8044       57.004563      907.67894     -12.889312      5.2602036      2.8531903      8.7226349      7.5539067      30.099516      1983.2562    
       176   0             -237.74365      355.8293       102.8044       57.004563      907.67894     -12.889312      5.2602036      2.8531904      8.7226349      7.5539067      30.099516      1983.2562    
       177   0             -237.74365      355.8293       102.8044       57.004563      907.67894     -12.889312      5.2602036      2.8531904      8.7226349      7.5539067      30.099516      1983.2562    
       178   0             -237.74365      355.8293       102.8044       57.004563      907.67894     -12.889312      5.2602036      2.8531904      8.7226349      7.5539067      30.099516      1983.2562    
       179   0             -237.74365      355.8293       102.8044       57.004563      907.67894     -12.889312      5.2602036      2.8531904      8.7226349      7.5539067      30.099516      1983.2562    
       180   0             -237.74365      355.8293       102.8044       57.004563      907.67894     -12.889312      5.2602036      2.8531904      8.7226349      7.5539067      30.099516      1983.2562    
       181   0             -237.74365      355.8293       102.8044       57.004563      907.67894     -12.889312      5.2602036      2.8531904      8.7226349      7.5539067      30.099516      1983.2562    
       182   0             -237.74365      355.8293       102.8044       57.004563      907.67894     -12.889312      5.2602036      2.8531904      8.7226349      7.5539067      30.099516      1983.2562    
       183   0             -237.74365      355.8293       102.8044       57.004563      907.67894     -12.889312      5.2602036      2.8531904      8.7226349      7.5539067      30.099516      1983.2562    
       184   0             -237.74365      355.8293       102.8044       57.004563      907.67894     -12.889312      5.2602036      2.8531904      8.7226349      7.5539067      30.099516      1983.2562    
       185   0             -237.74365      355.8293       102.8044       57.004563      907.67894     -12.889312      5.2602036      2.8531904      8.7226349      7.5539067      30.099516      1983.2562    
       186   0             -237.74365      355.8293       102.8044       57.004563      907.67894     -12.889312      5.2602036      2.8531904      8.7226349      7.5539067      30.099516      1983.2562    
       187   0             -237.74365      355.8293       102.8044       57.004563      907.67894     -12.889312      5.2602036      2.8531904      8.7226349      7.5539067      30.099516      1983.2562    
       188   0             -237.74365      355.8293       102.8044       57.004563      907.67894     -12.889312      5.2602036      2.8531904      8.7226349      7.5539067      30.099516      1983.2562    
       189   0             -237.74365      355.8293       102.8044       57.004563      907.67894     -12.889312      5.2602036      2.8531904      8.7226349      7.5539067      30.099516      1983.2562    
       190   0             -237.74365      355.8293       102.8044       57.004563      907.67894     -12.889312      5.2602036      2.8531904      8.7226349      7.5539067      30.099516      1983.2562    
       191   0             -237.74365      355.8293       102.8044       57.004563      907.67894     -12.889312      5.2602036      2.8531904      8.7226349      7.5539067      30.099516      1983.2562    
       192   0             -237.74365      355.8293       102.8044       57.004563      907.67894     -12.889312      5.2602036      2.8531904      8.7226349      7.5539067      30.099516      1983.2562    
       193   0             -237.74365      355.8293       102.8044       57.004563      907.67894     -12.889312      5.2602036      2.8531904      8.7226349      7.5539067      30.099516      1983.2562    
       194   0             -237.74365      355.8293       102.8044       57.004563      907.67894     -12.889312      5.2602036      2.8531904      8.7226349      7.5539067      30.099516      1983.2562    
       195   0             -237.74365      355.8293       102.8044       57.004563      907.67894     -12.889312      5.2602036      2.8531904      8.7226349      7.5539067      30.099516      1983.2562    
       196   0             -237.74365      355.8293       102.8044       57.004563      907.67894     -12.889312      5.2602036      2.8531904      8.7226349      7.5539067      30.099516      1983.2562    
       197   0             -237.74365      355.8293       102.8044       57.004563      907.67894     -12.889312      5.2602036      2.8531904      8.7226349      7.5539067      30.099516      1983.2562    
       198   0             -237.74365      355.8293       102.8044       57.004563      907.67894     -12.889312      5.2602036      2.8531904      8.7226349      7.5539067      30.099516      1983.2562    
       199   0             -237.74365      355.8293       102.8044       57.004563      907.67894     -12.889312      5.2602036      2.8531904      8.7226349      7.5539067      30.099516      1983.2562    
       200   0             -237.74365      355.8293       102.8044       57.004563      907.67894     -12.889312      5.2602036      2.8531904      8.7226349      7.5539067      30.099516      1983.2562    
Loop time of 0.0461322 on 48 procs for 100 steps with 60 atoms

99.4% CPU use with 48 MPI tasks x no OpenMP threads

Minimization stats:
  Stopping criterion = max iterations
  Energy initial, next-to-last, final = 
     -237.626449735038  -237.743648420707  -237.743648420707
  Force two-norm initial, final = 0.87141106 2.5395381e-14
  Force max component initial, final = 0.18113827 8.0074836e-15
  Final line search alpha, max atom move = 1 8.0074836e-15
  Iterations, force evaluations = 100 186

MPI task timing breakdown:
Section |  min time  |  avg time  |  max time  |%varavg| %total
---------------------------------------------------------------
Pair    | 2.1355e-05 | 0.0093738  | 0.030041   |   6.5 | 20.32
Neigh   | 0          | 0          | 0          |   0.0 |  0.00
Comm    | 0.0067504  | 0.023932   | 0.036598   |   4.5 | 51.88
Output  | 0.0040022  | 0.0041006  | 0.004373   |   0.1 |  8.89
Modify  | 0          | 0          | 0          |   0.0 |  0.00
Other   |            | 0.008726   |            |       | 18.92

Nlocal:           1.25 ave           4 max           0 min
Histogram: 9 0 21 0 0 16 0 1 0 1
Nghost:        175.333 ave         183 max         156 min
Histogram: 5 4 3 0 0 0 0 1 11 24
Neighs:              0 ave           0 max           0 min
Histogram: 48 0 0 0 0 0 0 0 0 0
FullNghs:           52 ave         170 max           0 min
Histogram: 9 0 21 0 10 6 0 1 0 1

Total # of neighbors = 2496
Ave neighs/atom = 41.6
Neighbor list builds = 0
Dangerous builds = 0
Reading restart file ...
  restart file = 24 Mar 2022, LAMMPS = 24 Mar 2022
  restoring atom style atomic from restart
  triclinic box = (0.02858141 0.024806646 0.0716689) to (8.7512076 7.5787134 30.171185) with tilt (-4.3612507 0 0)
  3 by 2 by 8 MPI processor grid
  pair style nep stores no restart info
  60 atoms
  read_restart CPU = 0.075 seconds
Use the NEP4 potential with 3 atom types.
    type 0( Bi with Z = 83).
    type 1( Sb with Z = 51).
    type 2( Te with Z = 52).
    has universal ZBL with inner cutoff 1.25 A and outer cutoff 2.5 A.
    radial cutoff = 6 A.
    angular cutoff = 4 A.
    n_max_radial = 6.
    n_max_angular = 6.
    basis_size_radial = 8.
    basis_size_angular = 8.
    l_max_3body = 6.
    l_max_4body = 2.
    l_max_5body = 1.
    ANN = 56-60-1.
    number of neural network parameters = 10441.
    number of descriptor parameters = 1134.
    total number of parameters = 11575.
Changing box ...
  triclinic box = (0.02858141 0.024806646 0.0716689) to (8.7512076 7.5787058 30.171185) with tilt (-4.3612507 0 0)
  triclinic box = (0.02858141 0.024806646 0.0716689) to (8.7512076 7.5787058 30.171185) with tilt (-4.3612507 0 0)
Neighbor list info ...
  update every 1 steps, delay 0 steps, check yes
  max neighbors/atom: 2000, page size: 100000
  master list distance cutoff = 7
  ghost atom cutoff = 7
  1 neighbor lists, perpetual/occasional/extra = 1 0 0
  (1) pair nep, perpetual
      attributes: full, newton on
      pair build: full/nsq
      stencil: none
      bin: none
Setting up cg style minimization ...
  Unit style    : metal
  Current step  : 100
Per MPI rank memory allocation (min/avg/max) = 4.085 | 4.085 | 4.085 Mbytes
   Step          Temp          PotEng         Press           Pxx            Pyy            Pzz            Pxy            Pxz            Pyz             Lx             Ly             Lz           Volume    
       100   0             -237.62645     -75.80563      -73.100996     -72.623255     -81.692639      0.87552532     16.528253     -5.0663587      8.7226262      7.5538992      30.099516      1983.2523    
       101   0             -237.66318     -124.28547     -135.18684     -127.59788     -110.07169      1.8350176      16.443229     -3.392918       8.7226262      7.5538992      30.099516      1983.2523    
       102   0             -237.68947     -86.924655     -130.09661     -117.23159     -13.445769      2.8138971      16.0999       -0.33001488     8.7226262      7.5538992      30.099516      1983.2523    
       103   0             -237.70817      17.291344     -73.718363     -58.372683      183.96508      3.1668575      15.546273      2.4335105      8.7226262      7.5538992      30.099516      1983.2523    
       104   0             -237.7218       176.81212      24.442469      37.854455      468.13944      2.1709215      14.689127      2.7569814      8.7226262      7.5538992      30.099516      1983.2523    
       105   0             -237.72988      333.89401      127.10933      134.75811      739.81461     -0.15310958     13.65088      -0.011283407    8.7226262      7.5538992      30.099516      1983.2523    
       106   0             -237.7343       452.91325      207.07791      209.80165      941.8602      -2.8143586      13.151656     -1.1686602      8.7226262      7.5538992      30.099516      1983.2523    
       107   0             -237.73693      525.83569      255.34482      254.4355       1067.7267     -5.4330287      13.074691      0.089418975    8.7226262      7.5538992      30.099516      1983.2523    
       108   0             -237.73873      559.34173      276.318        270.96031      1130.7469     -7.2253868      12.186748      1.319616       8.7226262      7.5538992      30.099516      1983.2523    
       109   0             -237.74015      516.1718       239.84697      228.6095       1080.0589     -8.3867498      11.297212      2.03792        8.7226262      7.5538992      30.099516      1983.2523    
       110   0             -237.74107      588.84166      298.49288      281.92535      1186.1067     -7.931267       8.3786852      2.1519628      8.7226262      7.5538992      30.099516      1983.2523    
       111   0             -237.74205      422.19078      163.6683       140.95733      961.9467      -9.1247832      8.5338241      2.6346876      8.7226262      7.5538992      30.099516      1983.2523    
       112   0             -237.74272      457.86634      191.5304       161.32353      1020.7451     -10.535525      8.2903327      2.5980404      8.7226262      7.5538992      30.099516      1983.2523    
       113   0             -237.74319      351.13364      102.73877      66.487039      884.17511     -10.555954      5.8161955      2.8965357      8.7226262      7.5538992      30.099516      1983.2523    
       114   0             -237.74346      326.13936      79.667769      35.596687      863.15362     -11.350081      4.319476       2.7720242      8.7226262      7.5538992      30.099516      1983.2523    
       115   0             -237.74349      363.85261      110.25051      65.560988      915.74634     -11.933354      5.0144585      2.2231579      8.7226262      7.5538992      30.099516      1983.2523    
       116   0             -237.74356      349.68455      98.499749      54.572271      895.98164     -13.158962      6.3695811      2.0589785      8.7226262      7.5538992      30.099516      1983.2523    
       117   0             -237.74362      381.46257      123.79907      81.466957      939.12167     -12.746902      5.4481243      2.300401       8.7226262      7.5538992      30.099516      1983.2523    
       118   0             -237.74363      375.92832      120.07885      76.869264      930.83684     -12.227262      4.4749258      1.6000394      8.7226262      7.5538992      30.099516      1983.2523    
       119   0             -237.74364      352.00094      101.37247      57.826169      896.80419     -12.455991      4.8950066      2.5956506      8.7226262      7.5538992      30.099516      1983.2523    
       120   0             -237.74364      349.50612      98.496113      55.664902      894.35734     -13.317764      6.5054381      4.6740678      8.7226262      7.5538992      30.099516      1983.2523    
       121   0             -237.74365      351.74669      100.00937      55.721575      899.50912     -13.174927      6.0064324      4.0635221      8.7226262      7.5538992      30.099516      1983.2523    
       122   0             -237.74365      359.60464      106.36485      60.589991      911.85907     -12.801633      4.9958009      2.6500918      8.7226262      7.5538992      30.099516      1983.2523    
       123   0             -237.74365      358.51896      105.27777      59.498218      910.7809      -12.940788      5.2348166      2.6793085      8.7226262      7.5538992      30.099516      1983.2523    
       124   0             -237.74365      357.88442      104.6462       58.996619      910.01044     -13.025906      5.4099478      2.8481445      8.7226262      7.5538992      30.099516      1983.2523    
       125   0             -237.74365      356.72242      103.73915      58.101815      908.3263      -12.914985      5.2146101      2.8657501      8.7226262      7.5538992      30.099516      1983.2523    
       126   0             -237.74365      356.35213      103.46655      57.802273      907.78756     -12.8925        5.189567       2.8384123      8.7226262      7.5538992      30.099516      1983.2523    
       127   0             -237.74365      356.35578      103.51464      57.768605      907.78409     -12.907645      5.2398525      2.7644161      8.7226262      7.5538992      30.099516      1983.2523    
       128   0             -237.74365      356.53002      103.67744      57.864618      908.04801     -12.905722      5.2605184      2.737109       8.7226262      7.5538992      30.099516      1983.2523    
       129   0             -237.74365      356.78544      103.79469      58.11936       908.44226     -12.8843        5.2349064      2.9333309      8.7226262      7.5538992      30.099516      1983.2523    
       130   0             -237.74365      356.67845      103.73627      57.994062      908.305       -12.905411      5.2829683      2.8860194      8.7226262      7.5538992      30.099516      1983.2523    
       131   0             -237.74365      356.63114      103.7252       57.927598      908.24063     -12.903016      5.2793934      2.8402925      8.7226262      7.5538992      30.099516      1983.2523    
       132   0             -237.74365      356.55353      103.66234      57.863405      908.13484     -12.888825      5.2497464      2.8441039      8.7226262      7.5538992      30.099516      1983.2523    
       133   0             -237.74365      356.60179      103.69272      57.913982      908.19868     -12.884193      5.2421837      2.8676116      8.7226262      7.5538992      30.099516      1983.2523    
       134   0             -237.74365      356.56673      103.67601      57.876642      908.14754     -12.888012      5.253041       2.8531477      8.7226262      7.5538992      30.099516      1983.2523    
       135   0             -237.74365      356.62075      103.72575      57.914466      908.22203     -12.889769      5.2574588      2.8417824      8.7226262      7.5538992      30.099516      1983.2523    
       136   0             -237.74365      356.59725      103.70588      57.897401      908.18847     -12.889914      5.2583786      2.8448564      8.7226262      7.5538992      30.099516      1983.2523    
       137   0             -237.74365      356.60303      103.70406      57.908756      908.19628     -12.890294      5.259935       2.8610129      8.7226262      7.5538992      30.099516      1983.2523    
       138   0             -237.74365      356.59729      103.70219      57.901914      908.18777     -12.891976      5.263972       2.855681       8.7226262      7.5538992      30.099516      1983.2523    
       139   0             -237.74365      356.5986       103.70588      57.901495      908.18841     -12.891619      5.2638588      2.8508584      8.7226262      7.5538992      30.099516      1983.2523    
       140   0             -237.74365      356.5979       103.70511      57.902053      908.18653     -12.88929       5.2595898      2.8521044      8.7226262      7.5538992      30.099516      1983.2523    
       141   0             -237.74365      356.59771      103.70502      57.902035      908.18608     -12.889011      5.2591787      2.8523173      8.7226262      7.5538992      30.099516      1983.2523    
       142   0             -237.74365      356.59917      103.70658      57.902717      908.18822     -12.889374      5.2599811      2.8512384      8.7226262      7.5538992      30.099516      1983.2523    
       143   0             -237.74365      356.59881      103.70624      57.902531      908.18767     -12.889715      5.2605723      2.8512371      8.7226262      7.5538992      30.099516      1983.2523    
       144   0             -237.74365      356.59907      103.70586      57.903389      908.18796     -12.889946      5.2608548      2.8525098      8.7226262      7.5538992      30.099516      1983.2523    
       145   0             -237.74365      356.59867      103.70541      57.903267      908.18735     -12.890111      5.2611389      2.8528179      8.7226262      7.5538992      30.099516      1983.2523    
       146   0             -237.74365      356.59883      103.70571      57.903213      908.18756     -12.890084      5.2610559      2.8524174      8.7226262      7.5538992      30.099516      1983.2523    
       147   0             -237.74365      356.59857      103.70563      57.902864      908.18721     -12.889992      5.2608404      2.8521163      8.7226262      7.5538992      30.099516      1983.2523    
       148   0             -237.74365      356.59868      103.70569      57.902972      908.18739     -12.88991       5.2606503      2.8521806      8.7226262      7.5538992      30.099516      1983.2523    
       149   0             -237.74365      356.59853      103.70554      57.902842      908.18721     -12.889879      5.2605636      2.8521862      8.7226262      7.5538992      30.099516      1983.2523    
       150   0             -237.74365      356.59854      103.70561      57.902762      908.18725     -12.889922      5.2606168      2.8519948      8.7226262      7.5538992      30.099516      1983.2523    
       151   0             -237.74365      356.59854      103.7056       57.902767      908.18727     -12.889965      5.2606738      2.8519782      8.7226262      7.5538992      30.099516      1983.2523    
       152   0             -237.74365      356.5985       103.70549      57.902807      908.18721     -12.89          5.2607243      2.8521209      8.7226262      7.5538992      30.099516      1983.2523    
       153   0             -237.74365      356.59856      103.70551      57.902872      908.18729     -12.890017      5.2607596      2.8521611      8.7226262      7.5538992      30.099516      1983.2523    
       154   0             -237.74365      356.59849      103.70546      57.902822      908.1872      -12.890025      5.2607739      2.8521638      8.7226262      7.5538992      30.099516      1983.2523    
       155   0             -237.74365      356.59854      103.7055       57.902857      908.18727     -12.890021      5.2607667      2.8521551      8.7226262      7.5538992      30.099516      1983.2523    
       156   0             -237.74365      356.59852      103.70548      57.902834      908.18723     -12.890014      5.2607541      2.8521525      8.7226262      7.5538992      30.099516      1983.2523    
       157   0             -237.74365      356.59853      103.7055       57.902839      908.18725     -12.890013      5.260752       2.8521464      8.7226262      7.5538992      30.099516      1983.2523    
       158   0             -237.74365      356.59853      103.7055       57.902835      908.18725     -12.890013      5.2607507      2.8521422      8.7226262      7.5538992      30.099516      1983.2523    
       159   0             -237.74365      356.59853      103.7055       57.902838      908.18725     -12.890013      5.2607503      2.8521433      8.7226262      7.5538992      30.099516      1983.2523    
       160   0             -237.74365      356.59852      103.70549      57.902838      908.18724     -12.890015      5.2607546      2.8521491      8.7226262      7.5538992      30.099516      1983.2523    
       161   0             -237.74365      356.59852      103.70549      57.902839      908.18724     -12.890017      5.2607584      2.8521509      8.7226262      7.5538992      30.099516      1983.2523    
       162   0             -237.74365      356.59852      103.70549      57.902839      908.18724     -12.890016      5.2607577      2.8521499      8.7226262      7.5538992      30.099516      1983.2523    
       163   0             -237.74365      356.59852      103.70549      57.902839      908.18724     -12.890015      5.2607559      2.852149       8.7226262      7.5538992      30.099516      1983.2523    
       164   0             -237.74365      356.59853      103.70549      57.902839      908.18724     -12.890015      5.2607547      2.8521485      8.7226262      7.5538992      30.099516      1983.2523    
       165   0             -237.74365      356.59853      103.70549      57.902839      908.18724     -12.890014      5.2607544      2.8521478      8.7226262      7.5538992      30.099516      1983.2523    
       166   0             -237.74365      356.59853      103.70549      57.902839      908.18724     -12.890014      5.2607542      2.8521474      8.7226262      7.5538992      30.099516      1983.2523    
       167   0             -237.74365      356.59853      103.70549      57.902838      908.18724     -12.890014      5.2607538      2.8521471      8.7226262      7.5538992      30.099516      1983.2523    
       168   0             -237.74365      356.59853      103.70549      57.902839      908.18724     -12.890014      5.260754       2.8521474      8.7226262      7.5538992      30.099516      1983.2523    
       169   0             -237.74365      356.59853      103.70549      57.902838      908.18724     -12.890014      5.2607542      2.8521475      8.7226262      7.5538992      30.099516      1983.2523    
       170   0             -237.74365      356.59853      103.70549      57.902838      908.18724     -12.890014      5.2607542      2.8521474      8.7226262      7.5538992      30.099516      1983.2523    
       171   0             -237.74365      356.59853      103.70549      57.902838      908.18724     -12.890014      5.2607542      2.8521475      8.7226262      7.5538992      30.099516      1983.2523    
       172   0             -237.74365      356.59853      103.70549      57.902838      908.18724     -12.890014      5.2607542      2.8521475      8.7226262      7.5538992      30.099516      1983.2523    
       173   0             -237.74365      356.59853      103.70549      57.902838      908.18724     -12.890014      5.2607542      2.8521475      8.7226262      7.5538992      30.099516      1983.2523    
       174   0             -237.74365      356.59853      103.70549      57.902838      908.18724     -12.890014      5.2607541      2.8521474      8.7226262      7.5538992      30.099516      1983.2523    
       175   0             -237.74365      356.59853      103.70549      57.902838      908.18724     -12.890014      5.2607541      2.8521474      8.7226262      7.5538992      30.099516      1983.2523    
       176   0             -237.74365      356.59853      103.70549      57.902838      908.18724     -12.890014      5.2607542      2.8521475      8.7226262      7.5538992      30.099516      1983.2523    
       177   0             -237.74365      356.59853      103.70549      57.902838      908.18724     -12.890014      5.2607542      2.8521475      8.7226262      7.5538992      30.099516      1983.2523    
       178   0             -237.74365      356.59853      103.70549      57.902838      908.18724     -12.890014      5.2607542      2.8521475      8.7226262      7.5538992      30.099516      1983.2523    
       179   0             -237.74365      356.59853      103.70549      57.902838      908.18724     -12.890014      5.2607542      2.8521475      8.7226262      7.5538992      30.099516      1983.2523    
       180   0             -237.74365      356.59853      103.70549      57.902838      908.18724     -12.890014      5.2607542      2.8521475      8.7226262      7.5538992      30.099516      1983.2523    
       181   0             -237.74365      356.59853      103.70549      57.902838      908.18724     -12.890014      5.2607542      2.8521475      8.7226262      7.5538992      30.099516      1983.2523    
       182   0             -237.74365      356.59853      103.70549      57.902838      908.18724     -12.890014      5.2607542      2.8521475      8.7226262      7.5538992      30.099516      1983.2523    
       183   0             -237.74365      356.59853      103.70549      57.902838      908.18724     -12.890014      5.2607542      2.8521475      8.7226262      7.5538992      30.099516      1983.2523    
       184   0             -237.74365      356.59853      103.70549      57.902838      908.18724     -12.890014      5.2607542      2.8521475      8.7226262      7.5538992      30.099516      1983.2523    
       185   0             -237.74365      356.59853      103.70549      57.902838      908.18724     -12.890014      5.2607542      2.8521475      8.7226262      7.5538992      30.099516      1983.2523    
       186   0             -237.74365      356.59853      103.70549      57.902838      908.18724     -12.890014      5.2607542      2.8521475      8.7226262      7.5538992      30.099516      1983.2523    
       187   0             -237.74365      356.59853      103.70549      57.902838      908.18724     -12.890014      5.2607542      2.8521475      8.7226262      7.5538992      30.099516      1983.2523    
       188   0             -237.74365      356.59853      103.70549      57.902838      908.18724     -12.890014      5.2607542      2.8521475      8.7226262      7.5538992      30.099516      1983.2523    
       189   0             -237.74365      356.59853      103.70549      57.902838      908.18724     -12.890014      5.2607542      2.8521475      8.7226262      7.5538992      30.099516      1983.2523    
       190   0             -237.74365      356.59853      103.70549      57.902838      908.18724     -12.890014      5.2607542      2.8521475      8.7226262      7.5538992      30.099516      1983.2523    
       191   0             -237.74365      356.59853      103.70549      57.902838      908.18724     -12.890014      5.2607542      2.8521475      8.7226262      7.5538992      30.099516      1983.2523    
       192   0             -237.74365      356.59853      103.70549      57.902838      908.18724     -12.890014      5.2607542      2.8521475      8.7226262      7.5538992      30.099516      1983.2523    
       193   0             -237.74365      356.59853      103.70549      57.902838      908.18724     -12.890014      5.2607542      2.8521475      8.7226262      7.5538992      30.099516      1983.2523    
       194   0             -237.74365      356.59853      103.70549      57.902838      908.18724     -12.890014      5.2607542      2.8521475      8.7226262      7.5538992      30.099516      1983.2523    
       195   0             -237.74365      356.59853      103.70549      57.902838      908.18724     -12.890014      5.2607542      2.8521475      8.7226262      7.5538992      30.099516      1983.2523    
       196   0             -237.74365      356.59853      103.70549      57.902838      908.18724     -12.890014      5.2607542      2.8521475      8.7226262      7.5538992      30.099516      1983.2523    
       197   0             -237.74365      356.59853      103.70549      57.902838      908.18724     -12.890014      5.2607542      2.8521475      8.7226262      7.5538992      30.099516      1983.2523    
       198   0             -237.74365      356.59853      103.70549      57.902838      908.18724     -12.890014      5.2607542      2.8521475      8.7226262      7.5538992      30.099516      1983.2523    
       199   0             -237.74365      356.59853      103.70549      57.902838      908.18724     -12.890014      5.2607542      2.8521475      8.7226262      7.5538992      30.099516      1983.2523    
       200   0             -237.74365      356.59853      103.70549      57.902838      908.18724     -12.890014      5.2607542      2.8521475      8.7226262      7.5538992      30.099516      1983.2523    
Loop time of 0.0467096 on 48 procs for 100 steps with 60 atoms

99.6% CPU use with 48 MPI tasks x no OpenMP threads

Minimization stats:
  Stopping criterion = max iterations
  Energy initial, next-to-last, final = 
     -237.626449916824  -237.743648221774  -237.743648221774
  Force two-norm initial, final = 0.87141493 2.7492711e-14
  Force max component initial, final = 0.18113933 7.1487954e-15
  Final line search alpha, max atom move = 1 7.1487954e-15
  Iterations, force evaluations = 100 186

MPI task timing breakdown:
Section |  min time  |  avg time  |  max time  |%varavg| %total
---------------------------------------------------------------
Pair    | 2.1514e-05 | 0.0096966  | 0.029861   |   6.6 | 20.76
Neigh   | 0          | 0          | 0          |   0.0 |  0.00
Comm    | 0.0063367  | 0.02399    | 0.037073   |   4.6 | 51.36
Output  | 0.0040207  | 0.0041083  | 0.0045985  |   0.1 |  8.80
Modify  | 0          | 0          | 0          |   0.0 |  0.00
Other   |            | 0.008915   |            |       | 19.09

Nlocal:           1.25 ave           4 max           0 min
Histogram: 9 0 21 0 0 16 0 1 0 1
Nghost:        175.333 ave         183 max         156 min
Histogram: 5 4 3 0 0 0 0 1 11 24
Neighs:              0 ave           0 max           0 min
Histogram: 48 0 0 0 0 0 0 0 0 0
FullNghs:           52 ave         170 max           0 min
Histogram: 9 0 21 0 10 6 0 1 0 1

Total # of neighbors = 2496
Ave neighs/atom = 41.6
Neighbor list builds = 0
Dangerous builds = 0
Reading restart file ...
  restart file = 24 Mar 2022, LAMMPS = 24 Mar 2022
  restoring atom style atomic from restart
  triclinic box = (0.02858141 0.024806646 0.0716689) to (8.7512076 7.5787134 30.171185) with tilt (-4.3612507 0 0)
  3 by 2 by 8 MPI processor grid
  pair style nep stores no restart info
  60 atoms
  read_restart CPU = 0.054 seconds
Use the NEP4 potential with 3 atom types.
    type 0( Bi with Z = 83).
    type 1( Sb with Z = 51).
    type 2( Te with Z = 52).
    has universal ZBL with inner cutoff 1.25 A and outer cutoff 2.5 A.
    radial cutoff = 6 A.
    angular cutoff = 4 A.
    n_max_radial = 6.
    n_max_angular = 6.
    basis_size_radial = 8.
    basis_size_angular = 8.
    l_max_3body = 6.
    l_max_4body = 2.
    l_max_5body = 1.
    ANN = 56-60-1.
    number of neural network parameters = 10441.
    number of descriptor parameters = 1134.
    total number of parameters = 11575.
Changing box ...
  triclinic box = (0.02858141 0.024806646 0.0716689) to (8.7512076 7.5787209 30.171185) with tilt (-4.3612507 0 0)
  triclinic box = (0.02858141 0.024806646 0.0716689) to (8.7512076 7.5787209 30.171185) with tilt (-4.3612507 0 0)
Neighbor list info ...
  update every 1 steps, delay 0 steps, check yes
  max neighbors/atom: 2000, page size: 100000
  master list distance cutoff = 7
  ghost atom cutoff = 7
  1 neighbor lists, perpetual/occasional/extra = 1 0 0
  (1) pair nep, perpetual
      attributes: full, newton on
      pair build: full/nsq
      stencil: none
      bin: none
Setting up cg style minimization ...
  Unit style    : metal
  Current step  : 100
Per MPI rank memory allocation (min/avg/max) = 4.085 | 4.085 | 4.085 Mbytes
   Step          Temp          PotEng         Press           Pxx            Pyy            Pzz            Pxy            Pxz            Pyz             Lx             Ly             Lz           Volume    
       100   0             -237.62645     -76.871942     -73.55668      -74.432415     -82.626732      0.87553178     16.528274     -5.6660396      8.7226262      7.5539143      30.099516      1983.2562    
       101   0             -237.66318     -125.27884     -135.60468     -129.32948     -110.90236      1.8349857      16.443239     -3.9493683      8.7226262      7.5539143      30.099516      1983.2562    
       102   0             -237.68947     -87.865782     -130.49167     -118.90427     -14.201412      2.8138353      16.099911     -0.84723422     8.7226262      7.5539143      30.099516      1983.2562    
       103   0             -237.70817      16.38991      -74.099241     -59.998324      183.2673       3.1667696      15.546296      1.9516161      8.7226262      7.5539143      30.099516      1983.2562    
       104   0             -237.7218       175.94746      24.074798      36.271502      467.49607      2.1707953      14.68918       2.3061298      8.7226262      7.5539143      30.099516      1983.2562    
       105   0             -237.72988      333.05976      126.75583      133.20754      739.21591     -0.15325404     13.650987     -0.44389945     8.7226262      7.5539143      30.099516      1983.2562    
       106   0             -237.7343       452.10302      206.73701      208.27465      941.2974      -2.814525       13.151796     -1.5909824      8.7226262      7.5539143      30.099516      1983.2562    
       107   0             -237.73693      525.04284      255.01235      252.92606      1067.1901     -5.4332255      13.074852     -0.32454798     8.7226262      7.5539143      30.099516      1983.2562    
       108   0             -237.73874      558.56075      275.99103      269.46343      1130.2278     -7.2256183      12.186925      0.91202257     8.7226262      7.5539143      30.099516      1983.2562    
       109   0             -237.74015      515.39085      239.51812      227.11466      1079.5398     -8.3869614      11.29738       1.6336286      8.7226262      7.5539143      30.099516      1983.2562    
       110   0             -237.74107      588.08042      298.17971      280.44699      1185.6145     -7.9314325      8.3788329      1.7479267      8.7226262      7.5539143      30.099516      1983.2562    
       111   0             -237.74205      421.4575       163.37717      139.50225      961.4931      -9.1245905      8.5332788      2.2315349      8.7226262      7.5539143      30.099516      1983.2562    
       112   0             -237.74272      457.18641      191.2827       159.91219      1020.3643     -10.536187      8.2912142      2.1943902      8.7226262      7.5539143      30.099516      1983.2562    
       113   0             -237.74319      350.52823      102.55228      65.134211      883.8982      -10.559666      5.8219103      2.4927711      8.7226262      7.5539143      30.099516      1983.2562    
       114   0             -237.74346      325.78206      79.686328      34.446431      863.21343     -11.354765      4.3267721      2.3656253      8.7226262      7.5539143      30.099516      1983.2562    
       115   0             -237.74349      363.33157      110.1289       64.272681      915.59311     -11.939594      5.0202283      1.8127347      8.7226262      7.5539143      30.099516      1983.2562    
       116   0             -237.74356      348.43856      97.789695      52.728823      894.79717     -13.168242      6.3809299      1.6723103      8.7226262      7.5539143      30.099516      1983.2562    
       117   0             -237.74362      380.85397      123.60958      80.115743      938.83658     -12.745035      5.4454222      1.8964211      8.7226262      7.5539143      30.099516      1983.2562    
       118   0             -237.74363      374.5925       119.32385      74.928577      929.52507     -12.215137      4.4509015      1.1832973      8.7226262      7.5539143      30.099516      1983.2562    
       119   0             -237.74364      351.24487      101.05481      56.365119      896.31467     -12.470069      4.9222789      2.2256345      8.7226262      7.5539143      30.099516      1983.2562    
       120   0             -237.74364      348.71178      98.15232       54.158396      893.82461     -13.320031      6.5105139      4.2745678      8.7226262      7.5539143      30.099516      1983.2562    
       121   0             -237.74365      350.9911       99.703709      54.241349      899.02824     -13.169134      5.9930379      3.6465871      8.7226262      7.5539143      30.099516      1983.2562    
       122   0             -237.74365      358.83482      106.04389      59.111252      911.34932     -12.801883      4.9970288      2.2496431      8.7226262      7.5539143      30.099516      1983.2562    
       123   0             -237.74365      357.75032      104.95815      58.020481      910.27235     -12.940047      5.2336473      2.2778301      8.7226262      7.5539143      30.099516      1983.2562    
       124   0             -237.74365      357.11374      104.32552      57.517143      909.49857     -13.026257      5.4114301      2.4459288      8.7226262      7.5539143      30.099516      1983.2562    
       125   0             -237.74365      355.94158      103.41054      56.613634      907.80056     -12.913296      5.2119298      2.4630932      8.7226262      7.5539143      30.099516      1983.2562    
       126   0             -237.74365      355.58386      103.14777      56.323977      907.27982     -12.892391      5.1900691      2.4356788      8.7226262      7.5539143      30.099516      1983.2562    
       127   0             -237.74365      355.58742      103.19643      56.289421      907.27641     -12.9077        5.2408655      2.3605714      8.7226262      7.5539143      30.099516      1983.2562    
       128   0             -237.74365      355.76441      103.36038      56.388601      907.54425     -12.905732      5.2612037      2.3352033      8.7226262      7.5539143      30.099516      1983.2562    
       129   0             -237.74365      356.01642      103.47467      56.640593      907.93399     -12.883955      5.2346995      2.5315808      8.7226262      7.5539143      30.099516      1983.2562    
       130   0             -237.74365      355.9068       103.41622      56.511438      907.79274     -12.905961      5.2847781      2.4806911      8.7226262      7.5539143      30.099516      1983.2562    
       131   0             -237.74365      355.86088      103.40494      56.447171      907.73053     -12.902202      5.2782393      2.4372989      8.7226262      7.5539143      30.099516      1983.2562    
       132   0             -237.74365      355.78482      103.34277      56.385009      907.62667     -12.88856       5.2497378      2.4420497      8.7226262      7.5539143      30.099516      1983.2562    
       133   0             -237.74365      355.832        103.37243      56.434669      907.6889      -12.883974      5.2422952      2.4653989      8.7226262      7.5539143      30.099516      1983.2562    
       134   0             -237.74365      355.8007       103.35904      56.40007       907.64298     -12.88788       5.2533491      2.4503723      8.7226262      7.5539143      30.099516      1983.2562    
       135   0             -237.74365      355.85348      103.40756      56.437148      907.71573     -12.889592      5.2576526      2.4392997      8.7226262      7.5539143      30.099516      1983.2562    
       136   0             -237.74365      355.82843      103.38636      56.418926      907.68001     -12.889733      5.2585658      2.442603       8.7226262      7.5539143      30.099516      1983.2562    
       137   0             -237.74365      355.83514      103.38531      56.431025      907.68909     -12.89009       5.2600665      2.4586981      8.7226262      7.5539143      30.099516      1983.2562    
       138   0             -237.74365      355.82913      103.38329      56.423926      907.68019     -12.891794      5.264153       2.4532426      8.7226262      7.5539143      30.099516      1983.2562    
       139   0             -237.74365      355.83072      103.38715      56.42378       907.68121     -12.891402      5.2639754      2.4485207      8.7226262      7.5539143      30.099516      1983.2562    
       140   0             -237.74365      355.82984      103.38623      56.424199      907.67908     -12.889075      5.2597037      2.4497814      8.7226262      7.5539143      30.099516      1983.2562    
       141   0             -237.74365      355.82977      103.38625      56.424257      907.67882     -12.888815      5.2593298      2.4499585      8.7226262      7.5539143      30.099516      1983.2562    
       142   0             -237.74365      355.83118      103.38776      56.424903      907.68087     -12.889181      5.2601372      2.44889        8.7226262      7.5539143      30.099516      1983.2562    
       143   0             -237.74365      355.83081      103.3874       56.424723      907.68031     -12.889516      5.2607127      2.4489207      8.7226262      7.5539143      30.099516      1983.2562    
       144   0             -237.74365      355.83106      103.38702      56.425565      907.68059     -12.889746      5.2609973      2.4501699      8.7226262      7.5539143      30.099516      1983.2562    
       145   0             -237.74365      355.83069      103.38659      56.425466      907.68001     -12.889911      5.2612799      2.4504817      8.7226262      7.5539143      30.099516      1983.2562    
       146   0             -237.74365      355.83081      103.38688      56.425381      907.68018     -12.88988       5.2611887      2.4500672      8.7226262      7.5539143      30.099516      1983.2562    
       147   0             -237.74365      355.83057      103.38681      56.425052      907.67986     -12.889791      5.2609796      2.4497802      8.7226262      7.5539143      30.099516      1983.2562    
       148   0             -237.74365      355.83066      103.38684      56.425144      907.68001     -12.889708      5.2607877      2.4498459      8.7226262      7.5539143      30.099516      1983.2562    
       149   0             -237.74365      355.83054      103.38672      56.425036      907.67986     -12.889678      5.2607034      2.4498489      8.7226262      7.5539143      30.099516      1983.2562    
       150   0             -237.74365      355.83054      103.38677      56.424944      907.67989     -12.889722      5.2607571      2.449656       8.7226262      7.5539143      30.099516      1983.2562    
       151   0             -237.74365      355.83054      103.38677      56.424954      907.67991     -12.889765      5.2608143      2.4496441      8.7226262      7.5539143      30.099516      1983.2562    
       152   0             -237.74365      355.8305       103.38666      56.424996      907.67986     -12.889799      5.2608641      2.4497851      8.7226262      7.5539143      30.099516      1983.2562    
       153   0             -237.74365      355.83055      103.38668      56.425057      907.67993     -12.889817      5.2608998      2.4498253      8.7226262      7.5539143      30.099516      1983.2562    
       154   0             -237.74365      355.83049      103.38663      56.425008      907.67984     -12.889824      5.2609136      2.4498271      8.7226262      7.5539143      30.099516      1983.2562    
       155   0             -237.74365      355.83055      103.38668      56.425046      907.67991     -12.88982       5.2609057      2.4498188      8.7226262      7.5539143      30.099516      1983.2562    
       156   0             -237.74365      355.83052      103.38666      56.42502       907.67987     -12.889813      5.2608935      2.4498162      8.7226262      7.5539143      30.099516      1983.2562    
       157   0             -237.74365      355.83053      103.38667      56.425026      907.67989     -12.889812      5.2608915      2.4498101      8.7226262      7.5539143      30.099516      1983.2562    
       158   0             -237.74365      355.83053      103.38667      56.425022      907.67989     -12.889812      5.26089        2.4498059      8.7226262      7.5539143      30.099516      1983.2562    
       159   0             -237.74365      355.83053      103.38667      56.425025      907.67989     -12.889812      5.2608898      2.4498071      8.7226262      7.5539143      30.099516      1983.2562    
       160   0             -237.74365      355.83053      103.38666      56.425025      907.67989     -12.889814      5.2608941      2.449813       8.7226262      7.5539143      30.099516      1983.2562    
       161   0             -237.74365      355.83052      103.38666      56.425026      907.67988     -12.889816      5.260898       2.4498146      8.7226262      7.5539143      30.099516      1983.2562    
       162   0             -237.74365      355.83052      103.38666      56.425026      907.67988     -12.889815      5.260897       2.4498136      8.7226262      7.5539143      30.099516      1983.2562    
       163   0             -237.74365      355.83053      103.38666      56.425026      907.67988     -12.889815      5.2608953      2.4498128      8.7226262      7.5539143      30.099516      1983.2562    
       164   0             -237.74365      355.83053      103.38667      56.425026      907.67989     -12.889814      5.2608942      2.4498123      8.7226262      7.5539143      30.099516      1983.2562    
       165   0             -237.74365      355.83053      103.38667      56.425026      907.67989     -12.889814      5.2608938      2.4498115      8.7226262      7.5539143      30.099516      1983.2562    
       166   0             -237.74365      355.83053      103.38667      56.425026      907.67989     -12.889814      5.2608936      2.4498112      8.7226262      7.5539143      30.099516      1983.2562    
       167   0             -237.74365      355.83053      103.38667      56.425025      907.67989     -12.889813      5.2608933      2.4498109      8.7226262      7.5539143      30.099516      1983.2562    
       168   0             -237.74365      355.83053      103.38667      56.425026      907.67989     -12.889814      5.2608935      2.4498112      8.7226262      7.5539143      30.099516      1983.2562    
       169   0             -237.74365      355.83053      103.38667      56.425025      907.67989     -12.889814      5.2608936      2.4498113      8.7226262      7.5539143      30.099516      1983.2562    
       170   0             -237.74365      355.83053      103.38667      56.425026      907.67989     -12.889814      5.2608937      2.4498112      8.7226262      7.5539143      30.099516      1983.2562    
       171   0             -237.74365      355.83053      103.38667      56.425026      907.67989     -12.889814      5.2608937      2.4498113      8.7226262      7.5539143      30.099516      1983.2562    
       172   0             -237.74365      355.83053      103.38667      56.425026      907.67989     -12.889814      5.2608937      2.4498113      8.7226262      7.5539143      30.099516      1983.2562    
       173   0             -237.74365      355.83053      103.38667      56.425026      907.67989     -12.889814      5.2608936      2.4498113      8.7226262      7.5539143      30.099516      1983.2562    
       174   0             -237.74365      355.83053      103.38667      56.425026      907.67989     -12.889814      5.2608936      2.4498112      8.7226262      7.5539143      30.099516      1983.2562    
       175   0             -237.74365      355.83053      103.38667      56.425026      907.67989     -12.889814      5.2608936      2.4498112      8.7226262      7.5539143      30.099516      1983.2562    
       176   0             -237.74365      355.83053      103.38667      56.425026      907.67989     -12.889814      5.2608936      2.4498112      8.7226262      7.5539143      30.099516      1983.2562    
       177   0             -237.74365      355.83053      103.38667      56.425026      907.67989     -12.889814      5.2608936      2.4498112      8.7226262      7.5539143      30.099516      1983.2562    
       178   0             -237.74365      355.83053      103.38667      56.425026      907.67989     -12.889814      5.2608936      2.4498112      8.7226262      7.5539143      30.099516      1983.2562    
       179   0             -237.74365      355.83053      103.38667      56.425026      907.67989     -12.889814      5.2608936      2.4498112      8.7226262      7.5539143      30.099516      1983.2562    
       180   0             -237.74365      355.83053      103.38667      56.425026      907.67989     -12.889814      5.2608936      2.4498112      8.7226262      7.5539143      30.099516      1983.2562    
       181   0             -237.74365      355.83053      103.38667      56.425026      907.67989     -12.889814      5.2608936      2.4498112      8.7226262      7.5539143      30.099516      1983.2562    
       182   0             -237.74365      355.83053      103.38667      56.425026      907.67989     -12.889814      5.2608936      2.4498112      8.7226262      7.5539143      30.099516      1983.2562    
       183   0             -237.74365      355.83053      103.38667      56.425026      907.67989     -12.889814      5.2608936      2.4498112      8.7226262      7.5539143      30.099516      1983.2562    
       184   0             -237.74365      355.83053      103.38667      56.425026      907.67989     -12.889814      5.2608936      2.4498112      8.7226262      7.5539143      30.099516      1983.2562    
       185   0             -237.74365      355.83053      103.38667      56.425026      907.67989     -12.889814      5.2608936      2.4498112      8.7226262      7.5539143      30.099516      1983.2562    
       186   0             -237.74365      355.83053      103.38667      56.425026      907.67989     -12.889814      5.2608936      2.4498112      8.7226262      7.5539143      30.099516      1983.2562    
       187   0             -237.74365      355.83053      103.38667      56.425026      907.67989     -12.889814      5.2608936      2.4498112      8.7226262      7.5539143      30.099516      1983.2562    
       188   0             -237.74365      355.83053      103.38667      56.425026      907.67989     -12.889814      5.2608936      2.4498112      8.7226262      7.5539143      30.099516      1983.2562    
       189   0             -237.74365      355.83053      103.38667      56.425026      907.67989     -12.889814      5.2608936      2.4498112      8.7226262      7.5539143      30.099516      1983.2562    
       190   0             -237.74365      355.83053      103.38667      56.425026      907.67989     -12.889814      5.2608936      2.4498112      8.7226262      7.5539143      30.099516      1983.2562    
       191   0             -237.74365      355.83053      103.38667      56.425026      907.67989     -12.889814      5.2608936      2.4498112      8.7226262      7.5539143      30.099516      1983.2562    
       192   0             -237.74365      355.83053      103.38667      56.425026      907.67989     -12.889814      5.2608936      2.4498112      8.7226262      7.5539143      30.099516      1983.2562    
       193   0             -237.74365      355.83053      103.38667      56.425026      907.67989     -12.889814      5.2608936      2.4498112      8.7226262      7.5539143      30.099516      1983.2562    
       194   0             -237.74365      355.83053      103.38667      56.425026      907.67989     -12.889814      5.2608936      2.4498112      8.7226262      7.5539143      30.099516      1983.2562    
       195   0             -237.74365      355.83053      103.38667      56.425026      907.67989     -12.889814      5.2608936      2.4498112      8.7226262      7.5539143      30.099516      1983.2562    
       196   0             -237.74365      355.83053      103.38667      56.425026      907.67989     -12.889814      5.2608936      2.4498112      8.7226262      7.5539143      30.099516      1983.2562    
       197   0             -237.74365      355.83053      103.38667      56.425026      907.67989     -12.889814      5.2608936      2.4498112      8.7226262      7.5539143      30.099516      1983.2562    
       198   0             -237.74365      355.83053      103.38667      56.425026      907.67989     -12.889814      5.2608936      2.4498112      8.7226262      7.5539143      30.099516      1983.2562    
       199   0             -237.74365      355.83053      103.38667      56.425026      907.67989     -12.889814      5.2608936      2.4498112      8.7226262      7.5539143      30.099516      1983.2562    
       200   0             -237.74365      355.83053      103.38667      56.425026      907.67989     -12.889814      5.2608936      2.4498112      8.7226262      7.5539143      30.099516      1983.2562    
Loop time of 0.112736 on 48 procs for 100 steps with 60 atoms

98.4% CPU use with 48 MPI tasks x no OpenMP threads

Minimization stats:
  Stopping criterion = max iterations
  Energy initial, next-to-last, final = 
     -237.626449734791  -237.743648363295  -237.743648363295
  Force two-norm initial, final = 0.87141109 3.3963739e-14
  Force max component initial, final = 0.18113878 1.0762224e-14
  Final line search alpha, max atom move = 1 1.0762224e-14
  Iterations, force evaluations = 100 186

MPI task timing breakdown:
Section |  min time  |  avg time  |  max time  |%varavg| %total
---------------------------------------------------------------
Pair    | 2.1628e-05 | 0.0096529  | 0.030126   |   6.6 |  8.56
Neigh   | 0          | 0          | 0          |   0.0 |  0.00
Comm    | 0.0062764  | 0.023584   | 0.036143   |   4.5 | 20.92
Output  | 0.0041396  | 0.0056207  | 0.071635   |  12.8 |  4.99
Modify  | 0          | 0          | 0          |   0.0 |  0.00
Other   |            | 0.07388    |            |       | 65.53

Nlocal:           1.25 ave           4 max           0 min
Histogram: 9 0 21 0 0 16 0 1 0 1
Nghost:        175.333 ave         183 max         156 min
Histogram: 5 4 3 0 0 0 0 1 11 24
Neighs:              0 ave           0 max           0 min
Histogram: 48 0 0 0 0 0 0 0 0 0
FullNghs:           52 ave         170 max           0 min
Histogram: 9 0 21 0 10 6 0 1 0 1

Total # of neighbors = 2496
Ave neighs/atom = 41.6
Neighbor list builds = 0
Dangerous builds = 0
Reading restart file ...
  restart file = 24 Mar 2022, LAMMPS = 24 Mar 2022
  restoring atom style atomic from restart
  triclinic box = (0.02858141 0.024806646 0.0716689) to (8.7512076 7.5787134 30.171185) with tilt (-4.3612507 0 0)
  3 by 2 by 8 MPI processor grid
  pair style nep stores no restart info
  60 atoms
  read_restart CPU = 0.058 seconds
Use the NEP4 potential with 3 atom types.
    type 0( Bi with Z = 83).
    type 1( Sb with Z = 51).
    type 2( Te with Z = 52).
    has universal ZBL with inner cutoff 1.25 A and outer cutoff 2.5 A.
    radial cutoff = 6 A.
    angular cutoff = 4 A.
    n_max_radial = 6.
    n_max_angular = 6.
    basis_size_radial = 8.
    basis_size_angular = 8.
    l_max_3body = 6.
    l_max_4body = 2.
    l_max_5body = 1.
    ANN = 56-60-1.
    number of neural network parameters = 10441.
    number of descriptor parameters = 1134.
    total number of parameters = 11575.
Changing box ...
  triclinic box = (0.02858141 0.024806646 0.0716689) to (8.7512076 7.5787134 30.171155) with tilt (-4.3612507 0 0)
Neighbor list info ...
  update every 1 steps, delay 0 steps, check yes
  max neighbors/atom: 2000, page size: 100000
  master list distance cutoff = 7
  ghost atom cutoff = 7
  1 neighbor lists, perpetual/occasional/extra = 1 0 0
  (1) pair nep, perpetual
      attributes: full, newton on
      pair build: full/nsq
      stencil: none
      bin: none
Setting up cg style minimization ...
  Unit style    : metal
  Current step  : 100
Per MPI rank memory allocation (min/avg/max) = 4.085 | 4.085 | 4.085 Mbytes
   Step          Temp          PotEng         Press           Pxx            Pyy            Pzz            Pxy            Pxz            Pyz             Lx             Ly             Lz           Volume    
       100   0             -237.62645     -75.746981     -72.862572     -73.060781     -81.31759       0.87554623     16.528067     -5.3665472      8.7226262      7.5539067      30.099486      1983.2523    
       101   0             -237.66318     -124.25583     -134.98083     -128.04808     -109.73857      1.8350585      16.443033     -3.671516       8.7226262      7.5539067      30.099486      1983.2523    
       102   0             -237.68947     -86.917149     -129.91646     -117.68967     -13.145319      2.8139496      16.099712     -0.58903944     8.7226262      7.5539067      30.099486      1983.2523    
       103   0             -237.70817      17.281028     -73.559711     -58.835868      184.23866      3.1669099      15.546119      2.1921336      8.7226262      7.5539067      30.099486      1983.2523    
       104   0             -237.7218       176.78476      24.581189      37.386127      468.38696      2.1709486      14.689056      2.5312014      8.7226262      7.5539067      30.099486      1983.2523    
       105   0             -237.72987      333.85134      127.23217      134.28306      740.03878     -0.15313449     13.650926     -0.22776442     8.7226262      7.5539067      30.099486      1983.2523    
       106   0             -237.7343       452.85745      207.18888      209.32036      942.06311     -2.814411       13.151823     -1.3796922      8.7226262      7.5539067      30.099486      1983.2523    
       107   0             -237.73693      525.77006      255.44689      253.94996      1067.9133     -5.4330818      13.074943     -0.11718794     8.7226262      7.5539067      30.099486      1983.2523    
       108   0             -237.73873      559.26728      276.41183      270.46991      1130.9201     -7.2254034      12.187018      1.1161833      8.7226262      7.5539067      30.099486      1983.2523    
       109   0             -237.74014      516.09749      239.9403       228.12039      1080.2318     -8.3868514      11.297622      1.8361809      8.7226262      7.5539067      30.099486      1983.2523    
       110   0             -237.74107      588.75109      298.57308      281.42283      1186.2573     -7.9309295      8.3782416      1.9498011      8.7226262      7.5539067      30.099486      1983.2523    
       111   0             -237.74205      422.07353      163.72705      140.43399      962.05954     -9.125226       8.5348747      2.4332383      8.7226262      7.5539067      30.099486      1983.2523    
       112   0             -237.74272      457.72121      191.56634      160.77708      1020.8202     -10.535418      8.2901836      2.3962644      8.7226262      7.5539067      30.099486      1983.2523    
       113   0             -237.74319      350.92887      102.72507      65.892928      884.16861     -10.55346       5.8121225      2.6947894      8.7226262      7.5539067      30.099486      1983.2523    
       114   0             -237.74346      325.76585      79.514602      34.865457      862.91748     -11.347061      4.314639       2.5717389      8.7226262      7.5539067      30.099486      1983.2523    
       115   0             -237.74349      363.59425      110.19569      64.926938      915.66012     -11.929388      5.010855       2.0256321      8.7226262      7.5539067      30.099486      1983.2523    
       116   0             -237.74356      349.93258      98.85627       54.328858      896.6126      -13.152747      6.3624511      1.8466487      8.7226262      7.5539067      30.099486      1983.2523    
       117   0             -237.74362      381.27453      123.79941      80.887605      939.13657     -12.748115      5.4504932      2.0999042      8.7226262      7.5539067      30.099486      1983.2523    
       118   0             -237.74363      376.21845      120.45096      76.677788      931.52662     -12.235513      4.492024       1.408193       8.7226262      7.5539067      30.099486      1983.2523    
       119   0             -237.74364      351.92894      101.47239      57.334916      896.97952     -12.44732       4.879112       2.3729926      8.7226262      7.5539067      30.099486      1983.2523    
       120   0             -237.74364      349.45051      98.607028      55.196159      894.54833     -13.315999      6.5023865      4.4686799      8.7226262      7.5539067      30.099486      1983.2523    
       121   0             -237.74364      351.66617      100.0957       55.237186      899.66563     -13.178767      6.016257       3.8706766      8.7226262      7.5539067      30.099486      1983.2523    
       122   0             -237.74365      359.53342      106.46096      60.104535      912.03477     -12.801418      4.9958378      2.446596       8.7226262      7.5539067      30.099486      1983.2523    
       123   0             -237.74365      358.44782      105.37375      59.012992      910.95672     -12.941217      5.2364103      2.4765949      8.7226262      7.5539067      30.099486      1983.2523    
       124   0             -237.74365      357.8136       104.74183      58.511617      910.18735     -13.025669      5.4098647      2.6460377      8.7226262      7.5539067      30.099486      1983.2523    
       125   0             -237.74365      356.65924      103.84074      57.623284      908.51369     -12.916135      5.2173308      2.6639411      8.7226262      7.5539067      30.099486      1983.2523    
       126   0             -237.74365      356.27967      103.56088      57.316472      907.96164     -12.892562      5.1901181      2.6366709      8.7226262      7.5539067      30.099486      1983.2523    
       127   0             -237.74365      356.28362      103.60883      57.283515      907.95852     -12.907612      5.2400967      2.5633188      8.7226262      7.5539067      30.099486      1983.2523    
       128   0             -237.74365      356.45594      103.77072      57.377388      908.21972     -12.905708      5.2609301      2.5348218      8.7226262      7.5539067      30.099486      1983.2523    
       129   0             -237.74365      356.71354      103.88994      57.633838      908.61684     -12.884536      5.2359052      2.7307746      8.7226262      7.5539067      30.099486      1983.2523    
       130   0             -237.74365      356.60859      103.83165      57.51146       908.48267     -12.905         5.2825188      2.6861011      8.7226262      7.5539067      30.099486      1983.2523    
       131   0             -237.74365      356.55997      103.82048      57.443094      908.41634     -12.903502      5.2808787      2.6386532      8.7226262      7.5539067      30.099486      1983.2523    
       132   0             -237.74365      356.4814       103.75717      57.377684      908.30934     -12.888996      5.2505797      2.6419349      8.7226262      7.5539067      30.099486      1983.2523    
       133   0             -237.74365      356.53047      103.78811      57.428898      908.37439     -12.884348      5.2429635      2.665483       8.7226262      7.5539067      30.099486      1983.2523    
       134   0             -237.74365      356.49315      103.76938      57.389941      908.32011     -12.888108      5.2536896      2.6514226      8.7226262      7.5539067      30.099486      1983.2523    
       135   0             -237.74365      356.54773      103.81972      57.428051      908.39541     -12.889892      5.258179       2.6398442      8.7226262      7.5539067      30.099486      1983.2523    
       136   0             -237.74365      356.52519      103.80068      57.411708      908.36319     -12.890039      5.2590985      2.6428007      8.7226262      7.5539067      30.099486      1983.2523    
       137   0             -237.74365      356.53044      103.79842      57.422624      908.37028     -12.890433      5.2606902      2.6589679      8.7226262      7.5539067      30.099486      1983.2523    
       138   0             -237.74365      356.5249       103.79667      57.415963      908.36205     -12.892102      5.2646953      2.653722       8.7226262      7.5539067      30.099486      1983.2523    
       139   0             -237.74365      356.52598      103.80021      57.415344      908.3624      -12.891765      5.2646234      2.6488387      8.7226262      7.5539067      30.099486      1983.2523    
       140   0             -237.74365      356.52543      103.79957      57.416012      908.36071     -12.889436      5.2603589      2.6500727      8.7226262      7.5539067      30.099486      1983.2523    
       141   0             -237.74365      356.52514      103.79938      57.415931      908.36012     -12.889144      5.2599216      2.6503117      8.7226262      7.5539067      30.099486      1983.2523    
       142   0             -237.74365      356.52666      103.80099      57.416644      908.36233     -12.889506      5.2607224      2.6492253      8.7226262      7.5539067      30.099486      1983.2523    
       143   0             -237.74365      356.5263       103.80065      57.416449      908.36179     -12.88985       5.2613228      2.6492041      8.7226262      7.5539067      30.099486      1983.2523    
       144   0             -237.74365      356.52656      103.80027      57.417318      908.36208     -12.890081      5.261604       2.6504903      8.7226262      7.5539067      30.099486      1983.2523    
       145   0             -237.74365      356.52614      103.79981      57.417181      908.36144     -12.890247      5.2618894      2.6507965      8.7226262      7.5539067      30.099486      1983.2523    
       146   0             -237.74365      356.52632      103.80012      57.417147      908.36168     -12.890221      5.2618104      2.6504023      8.7226262      7.5539067      30.099486      1983.2523    
       147   0             -237.74365      356.52605      103.80004      57.416784      908.36132     -12.890128      5.261591       2.6500945      8.7226262      7.5539067      30.099486      1983.2523    
       148   0             -237.74365      356.52618      103.80011      57.416911      908.36152     -12.890046      5.2614005      2.6501615      8.7226262      7.5539067      30.099486      1983.2523    
       149   0             -237.74365      356.526        103.79994      57.416753      908.3613      -12.890015      5.2613148      2.6501639      8.7226262      7.5539067      30.099486      1983.2523    
       150   0             -237.74365      356.52603      103.80002      57.416691      908.36137     -12.890058      5.2613682      2.6499741      8.7226262      7.5539067      30.099486      1983.2523    
       151   0             -237.74365      356.52602      103.80001      57.416688      908.36138     -12.890101      5.2614246      2.6499562      8.7226262      7.5539067      30.099486      1983.2523    
       152   0             -237.74365      356.52598      103.7999       57.416728      908.36132     -12.890136      5.2614754      2.6500994      8.7226262      7.5539067      30.099486      1983.2523    
       153   0             -237.74365      356.52604      103.79992      57.416796      908.3614      -12.890153      5.2615104      2.6501394      8.7226262      7.5539067      30.099486      1983.2523    
       154   0             -237.74365      356.52598      103.79987      57.416745      908.36131     -12.890161      5.2615251      2.6501427      8.7226262      7.5539067      30.099486      1983.2523    
       155   0             -237.74365      356.52602      103.79992      57.416779      908.36138     -12.890157      5.2615182      2.6501338      8.7226262      7.5539067      30.099486      1983.2523    
       156   0             -237.74365      356.526        103.7999       57.416757      908.36134     -12.89015       5.2615053      2.6501312      8.7226262      7.5539067      30.099486      1983.2523    
       157   0             -237.74365      356.52601      103.79991      57.416761      908.36136     -12.890149      5.2615032      2.6501252      8.7226262      7.5539067      30.099486      1983.2523    
       158   0             -237.74365      356.52601      103.79991      57.416758      908.36135     -12.890149      5.261502       2.6501209      8.7226262      7.5539067      30.099486      1983.2523    
       159   0             -237.74365      356.52601      103.79991      57.41676       908.36136     -12.890149      5.2615015      2.6501219      8.7226262      7.5539067      30.099486      1983.2523    
       160   0             -237.74365      356.52601      103.7999       57.416761      908.36135     -12.890151      5.2615059      2.6501278      8.7226262      7.5539067      30.099486      1983.2523    
       161   0             -237.74365      356.52601      103.7999       57.416762      908.36135     -12.890153      5.2615096      2.6501296      8.7226262      7.5539067      30.099486      1983.2523    
       162   0             -237.74365      356.52601      103.7999       57.416761      908.36135     -12.890153      5.261509       2.6501286      8.7226262      7.5539067      30.099486      1983.2523    
       163   0             -237.74365      356.52601      103.7999       57.416761      908.36135     -12.890152      5.2615071      2.6501277      8.7226262      7.5539067      30.099486      1983.2523    
       164   0             -237.74365      356.52601      103.79991      57.416762      908.36135     -12.890151      5.261506       2.6501272      8.7226262      7.5539067      30.099486      1983.2523    
       165   0             -237.74365      356.52601      103.79991      57.416761      908.36135     -12.890151      5.2615056      2.6501265      8.7226262      7.5539067      30.099486      1983.2523    
       166   0             -237.74365      356.52601      103.79991      57.416761      908.36135     -12.890151      5.2615054      2.6501261      8.7226262      7.5539067      30.099486      1983.2523    
       167   0             -237.74365      356.52601      103.79991      57.416761      908.36135     -12.89015       5.2615051      2.6501258      8.7226262      7.5539067      30.099486      1983.2523    
       168   0             -237.74365      356.52601      103.79991      57.416761      908.36135     -12.890151      5.2615053      2.6501261      8.7226262      7.5539067      30.099486      1983.2523    
       169   0             -237.74365      356.52601      103.79991      57.416761      908.36135     -12.890151      5.2615054      2.6501262      8.7226262      7.5539067      30.099486      1983.2523    
       170   0             -237.74365      356.52601      103.79991      57.416761      908.36135     -12.890151      5.2615055      2.6501261      8.7226262      7.5539067      30.099486      1983.2523    
       171   0             -237.74365      356.52601      103.79991      57.416761      908.36135     -12.890151      5.2615055      2.6501262      8.7226262      7.5539067      30.099486      1983.2523    
       172   0             -237.74365      356.52601      103.79991      57.416761      908.36135     -12.890151      5.2615055      2.6501262      8.7226262      7.5539067      30.099486      1983.2523    
       173   0             -237.74365      356.52601      103.79991      57.416761      908.36135     -12.890151      5.2615054      2.6501262      8.7226262      7.5539067      30.099486      1983.2523    
       174   0             -237.74365      356.52601      103.79991      57.416761      908.36135     -12.890151      5.2615054      2.6501261      8.7226262      7.5539067      30.099486      1983.2523    
       175   0             -237.74365      356.52601      103.79991      57.416761      908.36135     -12.890151      5.2615054      2.6501262      8.7226262      7.5539067      30.099486      1983.2523    
       176   0             -237.74365      356.52601      103.79991      57.416761      908.36135     -12.890151      5.2615054      2.6501262      8.7226262      7.5539067      30.099486      1983.2523    
       177   0             -237.74365      356.52601      103.79991      57.416761      908.36135     -12.890151      5.2615054      2.6501262      8.7226262      7.5539067      30.099486      1983.2523    
       178   0             -237.74365      356.52601      103.79991      57.416761      908.36135     -12.890151      5.2615054      2.6501262      8.7226262      7.5539067      30.099486      1983.2523    
       179   0             -237.74365      356.52601      103.79991      57.416761      908.36135     -12.890151      5.2615054      2.6501262      8.7226262      7.5539067      30.099486      1983.2523    
       180   0             -237.74365      356.52601      103.79991      57.416761      908.36135     -12.890151      5.2615054      2.6501262      8.7226262      7.5539067      30.099486      1983.2523    
       181   0             -237.74365      356.52601      103.79991      57.416761      908.36135     -12.890151      5.2615054      2.6501262      8.7226262      7.5539067      30.099486      1983.2523    
       182   0             -237.74365      356.52601      103.79991      57.416761      908.36135     -12.890151      5.2615054      2.6501262      8.7226262      7.5539067      30.099486      1983.2523    
       183   0             -237.74365      356.52601      103.79991      57.416761      908.36135     -12.890151      5.2615054      2.6501262      8.7226262      7.5539067      30.099486      1983.2523    
       184   0             -237.74365      356.52601      103.79991      57.416761      908.36135     -12.890151      5.2615054      2.6501262      8.7226262      7.5539067      30.099486      1983.2523    
       185   0             -237.74365      356.52601      103.79991      57.416761      908.36135     -12.890151      5.2615054      2.6501262      8.7226262      7.5539067      30.099486      1983.2523    
       186   0             -237.74365      356.52601      103.79991      57.416761      908.36135     -12.890151      5.2615054      2.6501262      8.7226262      7.5539067      30.099486      1983.2523    
       187   0             -237.74365      356.52601      103.79991      57.416761      908.36135     -12.890151      5.2615054      2.6501262      8.7226262      7.5539067      30.099486      1983.2523    
       188   0             -237.74365      356.52601      103.79991      57.416761      908.36135     -12.890151      5.2615054      2.6501262      8.7226262      7.5539067      30.099486      1983.2523    
       189   0             -237.74365      356.52601      103.79991      57.416761      908.36135     -12.890151      5.2615054      2.6501262      8.7226262      7.5539067      30.099486      1983.2523    
       190   0             -237.74365      356.52601      103.79991      57.416761      908.36135     -12.890151      5.2615054      2.6501262      8.7226262      7.5539067      30.099486      1983.2523    
       191   0             -237.74365      356.52601      103.79991      57.416761      908.36135     -12.890151      5.2615054      2.6501262      8.7226262      7.5539067      30.099486      1983.2523    
       192   0             -237.74365      356.52601      103.79991      57.416761      908.36135     -12.890151      5.2615054      2.6501262      8.7226262      7.5539067      30.099486      1983.2523    
       193   0             -237.74365      356.52601      103.79991      57.416761      908.36135     -12.890151      5.2615054      2.6501262      8.7226262      7.5539067      30.099486      1983.2523    
       194   0             -237.74365      356.52601      103.79991      57.416761      908.36135     -12.890151      5.2615054      2.6501262      8.7226262      7.5539067      30.099486      1983.2523    
       195   0             -237.74365      356.52601      103.79991      57.416761      908.36135     -12.890151      5.2615054      2.6501262      8.7226262      7.5539067      30.099486      1983.2523    
       196   0             -237.74365      356.52601      103.79991      57.416761      908.36135     -12.890151      5.2615054      2.6501262      8.7226262      7.5539067      30.099486      1983.2523    
       197   0             -237.74365      356.52601      103.79991      57.416761      908.36135     -12.890151      5.2615054      2.6501262      8.7226262      7.5539067      30.099486      1983.2523    
       198   0             -237.74365      356.52601      103.79991      57.416761      908.36135     -12.890151      5.2615054      2.6501262      8.7226262      7.5539067      30.099486      1983.2523    
       199   0             -237.74365      356.52601      103.79991      57.416761      908.36135     -12.890151      5.2615054      2.6501262      8.7226262      7.5539067      30.099486      1983.2523    
       200   0             -237.74365      356.52601      103.79991      57.416761      908.36135     -12.890151      5.2615054      2.6501262      8.7226262      7.5539067      30.099486      1983.2523    
Loop time of 0.138384 on 48 procs for 100 steps with 60 atoms

98.2% CPU use with 48 MPI tasks x no OpenMP threads

Minimization stats:
  Stopping criterion = max iterations
  Energy initial, next-to-last, final = 
     -237.626449927547  -237.743647168841  -237.743647168841
  Force two-norm initial, final = 0.87141431 2.9595547e-14
  Force max component initial, final = 0.18113942 7.9936058e-15
  Final line search alpha, max atom move = 1 7.9936058e-15
  Iterations, force evaluations = 100 186

MPI task timing breakdown:
Section |  min time  |  avg time  |  max time  |%varavg| %total
---------------------------------------------------------------
Pair    | 1.9849e-05 | 0.0097643  | 0.030522   |   6.7 |  7.06
Neigh   | 0          | 0          | 0          |   0.0 |  0.00
Comm    | 0.0063191  | 0.023761   | 0.036559   |   4.6 | 17.17
Output  | 0.0041874  | 0.0061989  | 0.096993   |  16.8 |  4.48
Modify  | 0          | 0          | 0          |   0.0 |  0.00
Other   |            | 0.09866    |            |       | 71.29

Nlocal:           1.25 ave           4 max           0 min
Histogram: 9 0 21 0 0 16 0 1 0 1
Nghost:        175.333 ave         183 max         156 min
Histogram: 5 4 3 0 0 0 0 1 11 24
Neighs:              0 ave           0 max           0 min
Histogram: 48 0 0 0 0 0 0 0 0 0
FullNghs:           52 ave         170 max           0 min
Histogram: 9 0 21 0 10 6 0 1 0 1

Total # of neighbors = 2496
Ave neighs/atom = 41.6
Neighbor list builds = 0
Dangerous builds = 0
Reading restart file ...
  restart file = 24 Mar 2022, LAMMPS = 24 Mar 2022
  restoring atom style atomic from restart
  triclinic box = (0.02858141 0.024806646 0.0716689) to (8.7512076 7.5787134 30.171185) with tilt (-4.3612507 0 0)
  3 by 2 by 8 MPI processor grid
  pair style nep stores no restart info
  60 atoms
  read_restart CPU = 0.072 seconds
Use the NEP4 potential with 3 atom types.
    type 0( Bi with Z = 83).
    type 1( Sb with Z = 51).
    type 2( Te with Z = 52).
    has universal ZBL with inner cutoff 1.25 A and outer cutoff 2.5 A.
    radial cutoff = 6 A.
    angular cutoff = 4 A.
    n_max_radial = 6.
    n_max_angular = 6.
    basis_size_radial = 8.
    basis_size_angular = 8.
    l_max_3body = 6.
    l_max_4body = 2.
    l_max_5body = 1.
    ANN = 56-60-1.
    number of neural network parameters = 10441.
    number of descriptor parameters = 1134.
    total number of parameters = 11575.
Changing box ...
  triclinic box = (0.02858141 0.024806646 0.0716689) to (8.7512076 7.5787134 30.171215) with tilt (-4.3612507 0 0)
Neighbor list info ...
  update every 1 steps, delay 0 steps, check yes
  max neighbors/atom: 2000, page size: 100000
  master list distance cutoff = 7
  ghost atom cutoff = 7
  1 neighbor lists, perpetual/occasional/extra = 1 0 0
  (1) pair nep, perpetual
      attributes: full, newton on
      pair build: full/nsq
      stencil: none
      bin: none
Setting up cg style minimization ...
  Unit style    : metal
  Current step  : 100
Per MPI rank memory allocation (min/avg/max) = 4.085 | 4.085 | 4.085 Mbytes
   Step          Temp          PotEng         Press           Pxx            Pyy            Pzz            Pxy            Pxz            Pyz             Lx             Ly             Lz           Volume    
       100   0             -237.62645     -76.930592     -73.795102     -73.994891     -83.001783      0.87551087     16.52846      -5.3658549      8.7226262      7.5539067      30.099546      1983.2562    
       101   0             -237.66318     -125.30848     -135.81069     -128.87927     -111.23547      1.8349448      16.443434     -3.6707736      8.7226262      7.5539067      30.099546      1983.2562    
       102   0             -237.68947     -87.873288     -130.67182     -118.44618     -14.501861      2.8137828      16.100099     -0.58821272     8.7226262      7.5539067      30.099546      1983.2562    
       103   0             -237.70817      16.400227     -74.257891     -59.535139      182.99371      3.1667172      15.54645       2.19299        8.7226262      7.5539067      30.099546      1983.2562    
       104   0             -237.7218       175.97482      23.936081      36.73983       467.24855      2.1707682      14.689252      2.5319067      8.7226262      7.5539067      30.099546      1983.2562    
       105   0             -237.72988      333.10244      126.63299      133.68258      738.99174     -0.15322912     13.650942     -0.22742163     8.7226262      7.5539067      30.099546      1983.2562    
       106   0             -237.7343       452.15883      206.62605      208.75594      941.0945      -2.8144726      13.151629     -1.3799537      8.7226262      7.5539067      30.099546      1983.2562    
       107   0             -237.73693      525.10846      254.91029      253.41161      1067.0035     -5.4331724      13.0746       -0.11794464     8.7226262      7.5539067      30.099546      1983.2562    
       108   0             -237.73874      558.6352       275.8972       269.95383      1130.0546     -7.2256017      12.186655      1.1154515      8.7226262      7.5539067      30.099546      1983.2562    
       109   0             -237.74015      515.46517      239.4248       227.60378      1079.3669     -8.3868597      11.296969      1.8353636      8.7226262      7.5539067      30.099546      1983.2562    
       110   0             -237.74107      588.17099      298.09952      280.94952      1185.4639     -7.9317699      8.3792763      1.9500844      8.7226262      7.5539067      30.099546      1983.2562    
       111   0             -237.74205      421.57479      163.31845      140.02562      961.38031     -9.1241482      8.532229       2.4329806      8.7226262      7.5539067      30.099546      1983.2562    
       112   0             -237.74272      457.33149      191.24673      160.4586       1020.2891     -10.536299      8.2913701      2.3961627      8.7226262      7.5539067      30.099546      1983.2562    
       113   0             -237.74319      350.7331       102.56605      65.728399      883.90485     -10.562146      5.8259586      2.6945143      8.7226262      7.5539067      30.099546      1983.2562    
       114   0             -237.74346      326.15558      79.839533      35.177759      863.44945     -11.357713      4.3314978      2.5658947      8.7226262      7.5539067      30.099546      1983.2562    
       115   0             -237.74349      363.58506      110.17953      64.902606      915.67306     -11.943613      5.0237818      2.0100988      8.7226262      7.5539067      30.099546      1983.2562    
       116   0             -237.74357      348.18593      97.429773      52.969579      894.15843     -13.174657      6.3885822      1.8856353      8.7226262      7.5539067      30.099546      1983.2562    
       117   0             -237.74362      381.04563      123.61207      80.6979        938.82691     -12.743797      5.4429774      2.0968796      8.7226262      7.5539067      30.099546      1983.2562    
       118   0             -237.74363      374.24853      118.90996      75.07663       928.75901     -12.206232      4.4324551      1.3744647      8.7226262      7.5539067      30.099546      1983.2562    
       119   0             -237.74364      351.3285       100.96303      56.866758      896.15572     -12.480764      4.9421081      2.452769       8.7226262      7.5539067      30.099546      1983.2562    
       120   0             -237.74364      348.76032      98.035401      54.620446      893.6251      -13.321689      6.5133035      4.4797488      8.7226262      7.5539067      30.099546      1983.2562    
       121   0             -237.74365      351.07365      99.619214      54.727116      898.87463     -13.165176      5.9828884      3.8390857      8.7226262      7.5539067      30.099546      1983.2562    
       122   0             -237.74365      358.90575      105.94746      59.596501      911.17328     -12.802072      4.9969678      2.4532574      8.7226262      7.5539067      30.099546      1983.2562    
       123   0             -237.74365      357.82292      104.86359      58.50707       910.09811     -12.939525      5.2318866      2.4804712      8.7226262      7.5539067      30.099546      1983.2562    
       124   0             -237.74365      357.18433      104.22971      58.001938      909.32135     -13.026496      5.4115193      2.6479789      8.7226262      7.5539067      30.099546      1983.2562    
       125   0             -237.74365      356.00556      103.30956      57.092779      907.61433     -12.912163      5.209225       2.6649111      8.7226262      7.5539067      30.099546      1983.2562    
       126   0             -237.74365      355.65603      103.05324      56.809559      907.10529     -12.892371      5.1896403      2.6373825      8.7226262      7.5539067      30.099546      1983.2562    
       127   0             -237.74365      355.65985      103.10268      56.774512      907.10237     -12.907772      5.2407734      2.5612985      8.7226262      7.5539067      30.099546      1983.2562    
       128   0             -237.74365      355.83869      103.26721      56.876022      907.37284     -12.905725      5.2607641      2.5376059      8.7226262      7.5539067      30.099546      1983.2562    
       129   0             -237.74365      356.08824      103.37941      57.126024      907.75927     -12.883743      5.2337375      2.7340225      8.7226262      7.5539067      30.099546      1983.2562    
       130   0             -237.74365      355.97714      103.32117      56.994529      907.61574     -12.906296      5.2850851      2.6807644      8.7226262      7.5539067      30.099546      1983.2562    
       131   0             -237.74365      355.93151      103.30932      56.931088      907.55412     -12.901559      5.2764143      2.6387736      8.7226262      7.5539067      30.099546      1983.2562    
       132   0             -237.74365      355.85664      103.24764      56.870555      907.45172     -12.888353      5.2488309      2.6443488      8.7226262      7.5539067      30.099546      1983.2562    
       133   0             -237.74365      355.90325      103.277        56.919679      907.51308     -12.883825      5.2415305      2.6675011      8.7226262      7.5539067      30.099546      1983.2562    
       134   0             -237.74365      355.87489      103.26618      56.887238      907.47125     -12.887795      5.2527277      2.6520576      8.7226262      7.5539067      30.099546      1983.2562    
       135   0             -237.74365      355.92651      103.31363      56.923549      907.54236     -12.889472      5.256946       2.6411607      8.7226262      7.5539067      30.099546      1983.2562    
       136   0             -237.74365      355.90022      103.29133      56.904428      907.50491     -12.889609      5.2578494      2.6447199      8.7226262      7.5539067      30.099546      1983.2562    
       137   0             -237.74365      355.90775      103.29097      56.917175      907.51512     -12.889951      5.2593117      2.6607415      8.7226262      7.5539067      30.099546      1983.2562    
       138   0             -237.74365      355.90156      103.28884      56.909888      907.50595     -12.891672      5.2634378      2.6551751      8.7226262      7.5539067      30.099546      1983.2562    
       139   0             -237.74365      355.90331      103.29282      56.909923      907.5072      -12.89125       5.2632018      2.6505373      8.7226262      7.5539067      30.099546      1983.2562    
       140   0             -237.74365      355.90233      103.2918       56.910254      907.50493     -12.888928      5.2589349      2.6518081      8.7226262      7.5539067      30.099546      1983.2562    
       141   0             -237.74365      355.90234      103.29189      56.910359      907.50477     -12.888682      5.2585872      2.6519595      8.7226262      7.5539067      30.099546      1983.2562    
       142   0             -237.74365      355.90371      103.29337      56.910981      907.50677     -12.889052      5.2594004      2.6508951      8.7226262      7.5539067      30.099546      1983.2562    
       143   0             -237.74365      355.90333      103.29298      56.910805      907.5062      -12.88938       5.2599622      2.6509537      8.7226262      7.5539067      30.099546      1983.2562    
       144   0             -237.74365      355.90358      103.29261      56.911638      907.50648     -12.889611      5.2602482      2.6521857      8.7226262      7.5539067      30.099546      1983.2562    
       145   0             -237.74365      355.90322      103.29219      56.911554      907.50592     -12.889776      5.2605302      2.6524996      8.7226262      7.5539067      30.099546      1983.2562    
       146   0             -237.74365      355.90333      103.29247      56.911445      907.50607     -12.889741      5.2604317      2.6520717      8.7226262      7.5539067      30.099546      1983.2562    
       147   0             -237.74365      355.9031       103.2924       56.911131      907.50576     -12.889654      5.2602276      2.6517975      8.7226262      7.5539067      30.099546      1983.2562    
       148   0             -237.74365      355.90318      103.29243      56.911216      907.50589     -12.88957       5.2600331      2.6518663      8.7226262      7.5539067      30.099546      1983.2562    
       149   0             -237.74365      355.90307      103.29232      56.911117      907.50577     -12.889542      5.2599524      2.6518641      8.7226262      7.5539067      30.099546      1983.2562    
       150   0             -237.74365      355.90306      103.29237      56.91102       907.50578     -12.889586      5.2600067      2.6516706      8.7226262      7.5539067      30.099546      1983.2562    
       151   0             -237.74365      355.90307      103.29236      56.911033      907.5058      -12.889629      5.2600638      2.6516634      8.7226262      7.5539067      30.099546      1983.2562    
       152   0             -237.74365      355.90303      103.29225      56.911077      907.50576     -12.889663      5.260113       2.6518029      8.7226262      7.5539067      30.099546      1983.2562    
       153   0             -237.74365      355.90307      103.29227      56.911134      907.50582     -12.889681      5.260149       2.6518431      8.7226262      7.5539067      30.099546      1983.2562    
       154   0             -237.74365      355.90302      103.29222      56.911087      907.50574     -12.889688      5.2601626      2.6518443      8.7226262      7.5539067      30.099546      1983.2562    
       155   0             -237.74365      355.90307      103.29227      56.911126      907.50581     -12.889684      5.260154       2.6518362      8.7226262      7.5539067      30.099546      1983.2562    
       156   0             -237.74365      355.90304      103.29225      56.911099      907.50577     -12.889677      5.2601422      2.6518336      8.7226262      7.5539067      30.099546      1983.2562    
       157   0             -237.74365      355.90305      103.29226      56.911105      907.50579     -12.889676      5.2601403      2.6518275      8.7226262      7.5539067      30.099546      1983.2562    
       158   0             -237.74365      355.90305      103.29226      56.911101      907.50578     -12.889676      5.2601387      2.6518233      8.7226262      7.5539067      30.099546      1983.2562    
       159   0             -237.74365      355.90305      103.29226      56.911104      907.50579     -12.889676      5.2601385      2.6518246      8.7226262      7.5539067      30.099546      1983.2562    
       160   0             -237.74365      355.90305      103.29226      56.911105      907.50578     -12.889678      5.2601429      2.6518304      8.7226262      7.5539067      30.099546      1983.2562    
       161   0             -237.74365      355.90305      103.29226      56.911105      907.50578     -12.88968       5.2601467      2.6518321      8.7226262      7.5539067      30.099546      1983.2562    
       162   0             -237.74365      355.90305      103.29226      56.911105      907.50578     -12.889679      5.2601457      2.6518309      8.7226262      7.5539067      30.099546      1983.2562    
       163   0             -237.74365      355.90305      103.29226      56.911105      907.50578     -12.889678      5.260144       2.6518302      8.7226262      7.5539067      30.099546      1983.2562    
       164   0             -237.74365      355.90305      103.29226      56.911105      907.50578     -12.889678      5.2601429      2.6518297      8.7226262      7.5539067      30.099546      1983.2562    
       165   0             -237.74365      355.90305      103.29226      56.911105      907.50578     -12.889677      5.2601426      2.651829       8.7226262      7.5539067      30.099546      1983.2562    
       166   0             -237.74365      355.90305      103.29226      56.911105      907.50578     -12.889677      5.2601423      2.6518286      8.7226262      7.5539067      30.099546      1983.2562    
       167   0             -237.74365      355.90305      103.29226      56.911104      907.50578     -12.889677      5.260142       2.6518283      8.7226262      7.5539067      30.099546      1983.2562    
       168   0             -237.74365      355.90305      103.29226      56.911105      907.50578     -12.889677      5.2601423      2.6518287      8.7226262      7.5539067      30.099546      1983.2562    
       169   0             -237.74365      355.90305      103.29226      56.911104      907.50578     -12.889677      5.2601424      2.6518287      8.7226262      7.5539067      30.099546      1983.2562    
       170   0             -237.74365      355.90305      103.29226      56.911105      907.50578     -12.889677      5.2601424      2.6518287      8.7226262      7.5539067      30.099546      1983.2562    
       171   0             -237.74365      355.90305      103.29226      56.911105      907.50578     -12.889677      5.2601424      2.6518287      8.7226262      7.5539067      30.099546      1983.2562    
       172   0             -237.74365      355.90305      103.29226      56.911105      907.50578     -12.889677      5.2601424      2.6518287      8.7226262      7.5539067      30.099546      1983.2562    
       173   0             -237.74365      355.90305      103.29226      56.911105      907.50578     -12.889677      5.2601424      2.6518287      8.7226262      7.5539067      30.099546      1983.2562    
       174   0             -237.74365      355.90305      103.29226      56.911105      907.50578     -12.889677      5.2601424      2.6518287      8.7226262      7.5539067      30.099546      1983.2562    
       175   0             -237.74365      355.90305      103.29226      56.911105      907.50578     -12.889677      5.2601424      2.6518287      8.7226262      7.5539067      30.099546      1983.2562    
       176   0             -237.74365      355.90305      103.29226      56.911105      907.50578     -12.889677      5.2601424      2.6518287      8.7226262      7.5539067      30.099546      1983.2562    
       177   0             -237.74365      355.90305      103.29226      56.911105      907.50578     -12.889677      5.2601424      2.6518287      8.7226262      7.5539067      30.099546      1983.2562    
       178   0             -237.74365      355.90305      103.29226      56.911105      907.50578     -12.889677      5.2601424      2.6518287      8.7226262      7.5539067      30.099546      1983.2562    
       179   0             -237.74365      355.90305      103.29226      56.911105      907.50578     -12.889677      5.2601424      2.6518287      8.7226262      7.5539067      30.099546      1983.2562    
       180   0             -237.74365      355.90305      103.29226      56.911105      907.50578     -12.889677      5.2601424      2.6518287      8.7226262      7.5539067      30.099546      1983.2562    
       181   0             -237.74365      355.90305      103.29226      56.911105      907.50578     -12.889677      5.2601424      2.6518287      8.7226262      7.5539067      30.099546      1983.2562    
       182   0             -237.74365      355.90305      103.29226      56.911105      907.50578     -12.889677      5.2601424      2.6518287      8.7226262      7.5539067      30.099546      1983.2562    
       183   0             -237.74365      355.90305      103.29226      56.911105      907.50578     -12.889677      5.2601424      2.6518287      8.7226262      7.5539067      30.099546      1983.2562    
       184   0             -237.74365      355.90305      103.29226      56.911105      907.50578     -12.889677      5.2601424      2.6518287      8.7226262      7.5539067      30.099546      1983.2562    
       185   0             -237.74365      355.90305      103.29226      56.911105      907.50578     -12.889677      5.2601424      2.6518287      8.7226262      7.5539067      30.099546      1983.2562    
       186   0             -237.74365      355.90305      103.29226      56.911105      907.50578     -12.889677      5.2601424      2.6518287      8.7226262      7.5539067      30.099546      1983.2562    
       187   0             -237.74365      355.90305      103.29226      56.911105      907.50578     -12.889677      5.2601424      2.6518287      8.7226262      7.5539067      30.099546      1983.2562    
       188   0             -237.74365      355.90305      103.29226      56.911105      907.50578     -12.889677      5.2601424      2.6518287      8.7226262      7.5539067      30.099546      1983.2562    
       189   0             -237.74365      355.90305      103.29226      56.911105      907.50578     -12.889677      5.2601424      2.6518287      8.7226262      7.5539067      30.099546      1983.2562    
       190   0             -237.74365      355.90305      103.29226      56.911105      907.50578     -12.889677      5.2601424      2.6518287      8.7226262      7.5539067      30.099546      1983.2562    
       191   0             -237.74365      355.90305      103.29226      56.911105      907.50578     -12.889677      5.2601424      2.6518287      8.7226262      7.5539067      30.099546      1983.2562    
       192   0             -237.74365      355.90305      103.29226      56.911105      907.50578     -12.889677      5.2601424      2.6518287      8.7226262      7.5539067      30.099546      1983.2562    
       193   0             -237.74365      355.90305      103.29226      56.911105      907.50578     -12.889677      5.2601424      2.6518287      8.7226262      7.5539067      30.099546      1983.2562    
       194   0             -237.74365      355.90305      103.29226      56.911105      907.50578     -12.889677      5.2601424      2.6518287      8.7226262      7.5539067      30.099546      1983.2562    
       195   0             -237.74365      355.90305      103.29226      56.911105      907.50578     -12.889677      5.2601424      2.6518287      8.7226262      7.5539067      30.099546      1983.2562    
       196   0             -237.74365      355.90305      103.29226      56.911105      907.50578     -12.889677      5.2601424      2.6518287      8.7226262      7.5539067      30.099546      1983.2562    
       197   0             -237.74365      355.90305      103.29226      56.911105      907.50578     -12.889677      5.2601424      2.6518287      8.7226262      7.5539067      30.099546      1983.2562    
       198   0             -237.74365      355.90305      103.29226      56.911105      907.50578     -12.889677      5.2601424      2.6518287      8.7226262      7.5539067      30.099546      1983.2562    
       199   0             -237.74365      355.90305      103.29226      56.911105      907.50578     -12.889677      5.2601424      2.6518287      8.7226262      7.5539067      30.099546      1983.2562    
       200   0             -237.74365      355.90305      103.29226      56.911105      907.50578     -12.889677      5.2601424      2.6518287      8.7226262      7.5539067      30.099546      1983.2562    
Loop time of 0.0613548 on 48 procs for 100 steps with 60 atoms

99.1% CPU use with 48 MPI tasks x no OpenMP threads

Minimization stats:
  Stopping criterion = max iterations
  Energy initial, next-to-last, final = 
     -237.626449724145  -237.743649416613  -237.743649416613
  Force two-norm initial, final = 0.87141171 3.5150683e-14
  Force max component initial, final = 0.18113869 9.403936e-15
  Final line search alpha, max atom move = 1 9.403936e-15
  Iterations, force evaluations = 100 186

MPI task timing breakdown:
Section |  min time  |  avg time  |  max time  |%varavg| %total
---------------------------------------------------------------
Pair    | 2.1913e-05 | 0.0096989  | 0.030168   |   6.7 | 15.81
Neigh   | 0          | 0          | 0          |   0.0 |  0.00
Comm    | 0.0063623  | 0.02362    | 0.036192   |   4.5 | 38.50
Output  | 0.0039509  | 0.0043734  | 0.020221   |   3.5 |  7.13
Modify  | 0          | 0          | 0          |   0.0 |  0.00
Other   |            | 0.02366    |            |       | 38.57

Nlocal:           1.25 ave           4 max           0 min
Histogram: 9 0 21 0 0 16 0 1 0 1
Nghost:        175.333 ave         183 max         156 min
Histogram: 5 4 3 0 0 0 0 1 11 24
Neighs:              0 ave           0 max           0 min
Histogram: 48 0 0 0 0 0 0 0 0 0
FullNghs:           52 ave         170 max           0 min
Histogram: 9 0 21 0 10 6 0 1 0 1

Total # of neighbors = 2496
Ave neighs/atom = 41.6
Neighbor list builds = 0
Dangerous builds = 0
Reading restart file ...
  restart file = 24 Mar 2022, LAMMPS = 24 Mar 2022
  restoring atom style atomic from restart
  triclinic box = (0.02858141 0.024806646 0.0716689) to (8.7512076 7.5787134 30.171185) with tilt (-4.3612507 0 0)
  3 by 2 by 8 MPI processor grid
  pair style nep stores no restart info
  60 atoms
  read_restart CPU = 0.001 seconds
Use the NEP4 potential with 3 atom types.
    type 0( Bi with Z = 83).
    type 1( Sb with Z = 51).
    type 2( Te with Z = 52).
    has universal ZBL with inner cutoff 1.25 A and outer cutoff 2.5 A.
    radial cutoff = 6 A.
    angular cutoff = 4 A.
    n_max_radial = 6.
    n_max_angular = 6.
    basis_size_radial = 8.
    basis_size_angular = 8.
    l_max_3body = 6.
    l_max_4body = 2.
    l_max_5body = 1.
    ANN = 56-60-1.
    number of neural network parameters = 10441.
    number of descriptor parameters = 1134.
    total number of parameters = 11575.
Changing box ...
  triclinic box = (0.02858141 0.024806646 0.0716689) to (8.7512076 7.5787134 30.171185) with tilt (-4.3612507 0 -3.0099516e-05)
Neighbor list info ...
  update every 1 steps, delay 0 steps, check yes
  max neighbors/atom: 2000, page size: 100000
  master list distance cutoff = 7
  ghost atom cutoff = 7
  1 neighbor lists, perpetual/occasional/extra = 1 0 0
  (1) pair nep, perpetual
      attributes: full, newton on
      pair build: full/nsq
      stencil: none
      bin: none
Setting up cg style minimization ...
  Unit style    : metal
  Current step  : 100
Per MPI rank memory allocation (min/avg/max) = 4.085 | 4.085 | 4.085 Mbytes
   Step          Temp          PotEng         Press           Pxx            Pyy            Pzz            Pxy            Pxz            Pyz             Lx             Ly             Lz           Volume    
       100   0             -237.62645     -76.339004     -73.628993     -73.227986     -82.160032      0.8755085      16.528255     -4.7654964      8.7226262      7.5539067      30.099516      1983.2542    
       101   0             -237.66318     -124.78244     -135.67444     -128.18548     -110.48741      1.8349844      16.443229     -3.117787       8.7226262      7.5539067      30.099516      1983.2542    
       102   0             -237.68947     -87.39527      -130.5531      -117.80913     -13.823586      2.8138579      16.099897     -0.078341163    8.7226262      7.5539067      30.099516      1983.2542    
       103   0             -237.70817      16.840854     -74.149913     -58.944168      183.61664      3.1668202      15.546257      2.6641687      8.7226262      7.5539067      30.099516      1983.2542    
       104   0             -237.7218       176.38025      24.033256      37.28891       467.81859      2.1708949      14.689079      2.9695122      8.7226262      7.5539067      30.099516      1983.2542    
       105   0             -237.72988      333.47734      126.71642      134.19958      739.51602     -0.1530906      13.650775      0.19116972     8.7226262      7.5539067      30.099516      1983.2542    
       106   0             -237.7343       452.50862      206.69665      209.24965      941.57955     -2.814294       13.151474     -0.97156194     8.7226262      7.5539067      30.099516      1983.2542    
       107   0             -237.73693      525.43969      254.97206      253.88794      1067.4591     -5.4329356      13.074437      0.28224968     8.7226262      7.5539067      30.099516      1983.2542    
       108   0             -237.73873      558.95165      275.9512       270.4158       1130.4879     -7.2252855      12.18645       1.5093579      8.7226262      7.5539067      30.099516      1983.2542    
       109   0             -237.74015      515.78138      239.48055      228.06413      1079.7995     -8.3866255      11.296873      2.2262264      8.7226262      7.5539067      30.099516      1983.2542    
       110   0             -237.74107      588.46207      298.13525      281.38886      1185.8621     -7.9311218      8.3783422      2.3400961      8.7226262      7.5539067      30.099516      1983.2542    
       111   0             -237.74205      421.8246       163.32143      140.43182      961.72056     -9.1244335      8.5330747      2.8228738      8.7226262      7.5539067      30.099516      1983.2542    
       112   0             -237.74272      457.52769      191.20583      160.82071      1020.5565     -10.535605      8.2902841      2.7862545      8.7226262      7.5539067      30.099516      1983.2542    
       113   0             -237.74319      350.83276      102.44504      66.014146      884.03911     -10.557568      5.8185844      3.0850844      8.7226262      7.5539067      30.099516      1983.2542    
       114   0             -237.74346      325.96575      79.479096      35.227818      863.19035     -11.352164      4.3226188      2.9594306      8.7226262      7.5539067      30.099516      1983.2542    
       115   0             -237.74349      363.59561      109.99053      65.121724      915.67457     -11.936232      5.0168189      2.4083803      8.7226262      7.5539067      30.099516      1983.2542    
       116   0             -237.74356      349.05498      97.937645      53.847114      895.38019     -13.163362      6.3746934      2.2555298      8.7226262      7.5539067      30.099516      1983.2542    
       117   0             -237.74362      381.15959      123.50391      80.99392       938.98095     -12.745596      5.4460688      2.4877478      8.7226262      7.5539067      30.099516      1983.2542    
       118   0             -237.74363      375.25839      119.49821      76.098853      930.1781      -12.220762      4.4620684      1.7810917      8.7226262      7.5539067      30.099516      1983.2542    
       119   0             -237.74364      351.62125      101.01048      57.296151      896.55714     -12.462649      4.9078971      2.8005764      8.7226262      7.5539067      30.099516      1983.2542    
       120   0             -237.74364      349.10868      98.121972      55.113435      894.09063     -13.318585      6.5073688      4.864701       8.7226262      7.5539067      30.099516      1983.2542    
       121   0             -237.74365      351.36817      99.653976      55.182721      899.26781     -13.171611      5.9988866      4.2452006      8.7226262      7.5539067      30.099516      1983.2542    
       122   0             -237.74365      359.21904      106.00197      60.051887      911.60327     -12.801409      4.9957231      2.8398518      8.7226262      7.5539067      30.099516      1983.2542    
       123   0             -237.74365      358.13381      104.91553      58.960357      910.52554     -12.940061      5.2335195      2.8683275      8.7226262      7.5539067      30.099516      1983.2542    
       124   0             -237.74365      357.49843      104.28365      58.458017      909.75362     -13.025723      5.4099789      3.0366998      8.7226262      7.5539067      30.099516      1983.2542    
       125   0             -237.74365      356.33112      103.37244      57.558683      908.06222     -12.913758      5.2125131      3.0541028      8.7226262      7.5539067      30.099516      1983.2542    
       126   0             -237.74365      355.96739      103.10498      57.264298      907.53289     -12.892081      5.189091       3.0267224      8.7226262      7.5539067      30.099516      1983.2542    
       127   0             -237.74365      355.97094      103.1533       57.230151      907.52937     -12.907309      5.2396309      2.9521839      8.7226262      7.5539067      30.099516      1983.2542    
       128   0             -237.74365      356.1466       103.31671      57.32778       907.7953      -12.905368      5.2601456      2.9258428      8.7226262      7.5539067      30.099516      1983.2542    
       129   0             -237.74365      356.40029      103.43243      57.581155      908.18728     -12.883763      5.2340768      3.1222008      8.7226262      7.5539067      30.099516      1983.2542    
       130   0             -237.74365      356.29189      103.37398      57.453811      908.04789     -12.905341      5.2831869      3.0730037      8.7226262      7.5539067      30.099516      1983.2542    
       131   0             -237.74365      356.24541      103.36287      57.38858       907.98477     -12.902256      5.2781158      3.0284982      8.7226262      7.5539067      30.099516      1983.2542    
       132   0             -237.74365      356.16856      103.30037      57.325384      907.87994     -12.888334      5.2490277      3.0327566      8.7226262      7.5539067      30.099516      1983.2542    
       133   0             -237.74365      356.21625      103.33035      57.375477      907.94292     -12.883721      5.2415173      3.056196       8.7226262      7.5539067      30.099516      1983.2542    
       134   0             -237.74365      356.18304      103.31528      57.339481      907.89435     -12.887583      5.2524723      3.041441       8.7226262      7.5539067      30.099516      1983.2542    
       135   0             -237.74365      356.23649      103.36444      57.376973      907.96805     -12.889318      5.2568335      3.0302307      8.7226262      7.5539067      30.099516      1983.2542    
       136   0             -237.74365      356.21222      103.34392      57.359336      907.93341     -12.889462      5.2577516      3.0334122      8.7226262      7.5539067      30.099516      1983.2542    
       137   0             -237.74365      356.21845      103.34246      57.371053      907.94183     -12.889829      5.2592793      3.049548       8.7226262      7.5539067      30.099516      1983.2542    
       138   0             -237.74365      356.21257      103.34052      57.36408       907.93313     -12.891523      5.2633412      3.0441538      8.7226262      7.5539067      30.099516      1983.2542    
       139   0             -237.74365      356.21402      103.3443       57.363802      907.93397     -12.891149      5.2631967      3.039379       8.7226262      7.5539067      30.099516      1983.2542    
       140   0             -237.74365      356.21323      103.34346      57.364286      907.93195     -12.88882       5.2589255      3.0406315      8.7226262      7.5539067      30.099516      1983.2542    
       141   0             -237.74365      356.21311      103.34342      57.364309      907.9316      -12.888551      5.2585334      3.040826       8.7226262      7.5539067      30.099516      1983.2542    
       142   0             -237.74365      356.21454      103.34496      57.364972      907.93369     -12.888915      5.2593378      3.039753       8.7226262      7.5539067      30.099516      1983.2542    
       143   0             -237.74365      356.21418      103.3446       57.364789      907.93314     -12.889253      5.2599214      3.0397677      8.7226262      7.5539067      30.099516      1983.2542    
       144   0             -237.74365      356.21443      103.34422      57.365639      907.93342     -12.889484      5.2602049      3.0410291      8.7226262      7.5539067      30.099516      1983.2542    
       145   0             -237.74365      356.21405      103.34378      57.365529      907.93283     -12.889649      5.2604882      3.041339       8.7226262      7.5539067      30.099516      1983.2542    
       146   0             -237.74365      356.21418      103.34408      57.365459      907.93302     -12.88962       5.2604014      3.040932       8.7226262      7.5539067      30.099516      1983.2542    
       147   0             -237.74365      356.21394      103.344        57.36512       907.93269     -12.889529      5.260189       3.0406374      8.7226262      7.5539067      30.099516      1983.2542    
       148   0             -237.74365      356.21404      103.34405      57.365219      907.93284     -12.889447      5.2599983      3.0407018      8.7226262      7.5539067      30.099516      1983.2542    
       149   0             -237.74365      356.2139       103.34391      57.365102      907.93268     -12.889416      5.2599124      3.0407068      8.7226262      7.5539067      30.099516      1983.2542    
       150   0             -237.74365      356.2139       103.34397      57.365015      907.93272     -12.88946       5.2599657      3.0405145      8.7226262      7.5539067      30.099516      1983.2542    
       151   0             -237.74365      356.21391      103.34397      57.365023      907.93274     -12.889502      5.2600229      3.0405001      8.7226262      7.5539067      30.099516      1983.2542    
       152   0             -237.74365      356.21387      103.34386      57.365064      907.93268     -12.889538      5.2600731      3.040642       8.7226262      7.5539067      30.099516      1983.2542    
       153   0             -237.74365      356.21392      103.34388      57.365127      907.93276     -12.889555      5.2601086      3.0406823      8.7226262      7.5539067      30.099516      1983.2542    
       154   0             -237.74365      356.21386      103.34383      57.365077      907.93267     -12.889562      5.2601227      3.0406845      8.7226262      7.5539067      30.099516      1983.2542    
       155   0             -237.74365      356.21391      103.34387      57.365114      907.93274     -12.889558      5.2601151      3.040676       8.7226262      7.5539067      30.099516      1983.2542    
       156   0             -237.74365      356.21388      103.34385      57.365089      907.9327      -12.889552      5.2601027      3.0406734      8.7226262      7.5539067      30.099516      1983.2542    
       157   0             -237.74365      356.21389      103.34387      57.365094      907.93272     -12.88955       5.2601006      3.0406673      8.7226262      7.5539067      30.099516      1983.2542    
       158   0             -237.74365      356.21389      103.34387      57.365091      907.93272     -12.88955       5.2600993      3.0406631      8.7226262      7.5539067      30.099516      1983.2542    
       159   0             -237.74365      356.21389      103.34387      57.365093      907.93272     -12.88955       5.2600989      3.0406642      8.7226262      7.5539067      30.099516      1983.2542    
       160   0             -237.74365      356.21389      103.34386      57.365094      907.93271     -12.889552      5.2601033      3.0406701      8.7226262      7.5539067      30.099516      1983.2542    
       161   0             -237.74365      356.21389      103.34386      57.365095      907.93271     -12.889554      5.2601071      3.0406718      8.7226262      7.5539067      30.099516      1983.2542    
       162   0             -237.74365      356.21389      103.34386      57.365094      907.93271     -12.889554      5.2601063      3.0406708      8.7226262      7.5539067      30.099516      1983.2542    
       163   0             -237.74365      356.21389      103.34386      57.365094      907.93271     -12.889553      5.2601045      3.04067        8.7226262      7.5539067      30.099516      1983.2542    
       164   0             -237.74365      356.21389      103.34386      57.365095      907.93271     -12.889552      5.2601034      3.0406694      8.7226262      7.5539067      30.099516      1983.2542    
       165   0             -237.74365      356.21389      103.34386      57.365094      907.93271     -12.889552      5.260103       3.0406687      8.7226262      7.5539067      30.099516      1983.2542    
       166   0             -237.74365      356.21389      103.34386      57.365094      907.93271     -12.889552      5.2601028      3.0406684      8.7226262      7.5539067      30.099516      1983.2542    
       167   0             -237.74365      356.21389      103.34386      57.365094      907.93271     -12.889552      5.2601025      3.0406681      8.7226262      7.5539067      30.099516      1983.2542    
       168   0             -237.74365      356.21389      103.34386      57.365094      907.93271     -12.889552      5.2601027      3.0406684      8.7226262      7.5539067      30.099516      1983.2542    
       169   0             -237.74365      356.21389      103.34386      57.365094      907.93271     -12.889552      5.2601028      3.0406684      8.7226262      7.5539067      30.099516      1983.2542    
       170   0             -237.74365      356.21389      103.34386      57.365094      907.93271     -12.889552      5.2601028      3.0406684      8.7226262      7.5539067      30.099516      1983.2542    
       171   0             -237.74365      356.21389      103.34386      57.365094      907.93271     -12.889552      5.2601028      3.0406685      8.7226262      7.5539067      30.099516      1983.2542    
       172   0             -237.74365      356.21389      103.34386      57.365094      907.93271     -12.889552      5.2601028      3.0406685      8.7226262      7.5539067      30.099516      1983.2542    
       173   0             -237.74365      356.21389      103.34386      57.365094      907.93271     -12.889552      5.2601028      3.0406684      8.7226262      7.5539067      30.099516      1983.2542    
       174   0             -237.74365      356.21389      103.34386      57.365094      907.93271     -12.889552      5.2601028      3.0406684      8.7226262      7.5539067      30.099516      1983.2542    
       175   0             -237.74365      356.21389      103.34386      57.365094      907.93271     -12.889552      5.2601028      3.0406684      8.7226262      7.5539067      30.099516      1983.2542    
       176   0             -237.74365      356.21389      103.34386      57.365094      907.93271     -12.889552      5.2601028      3.0406684      8.7226262      7.5539067      30.099516      1983.2542    
       177   0             -237.74365      356.21389      103.34386      57.365094      907.93271     -12.889552      5.2601028      3.0406684      8.7226262      7.5539067      30.099516      1983.2542    
       178   0             -237.74365      356.21389      103.34386      57.365094      907.93271     -12.889552      5.2601028      3.0406684      8.7226262      7.5539067      30.099516      1983.2542    
       179   0             -237.74365      356.21389      103.34386      57.365094      907.93271     -12.889552      5.2601028      3.0406684      8.7226262      7.5539067      30.099516      1983.2542    
       180   0             -237.74365      356.21389      103.34386      57.365094      907.93271     -12.889552      5.2601028      3.0406684      8.7226262      7.5539067      30.099516      1983.2542    
       181   0             -237.74365      356.21389      103.34386      57.365094      907.93271     -12.889552      5.2601028      3.0406684      8.7226262      7.5539067      30.099516      1983.2542    
       182   0             -237.74365      356.21389      103.34386      57.365094      907.93271     -12.889552      5.2601028      3.0406684      8.7226262      7.5539067      30.099516      1983.2542    
       183   0             -237.74365      356.21389      103.34386      57.365094      907.93271     -12.889552      5.2601028      3.0406684      8.7226262      7.5539067      30.099516      1983.2542    
       184   0             -237.74365      356.21389      103.34386      57.365094      907.93271     -12.889552      5.2601028      3.0406684      8.7226262      7.5539067      30.099516      1983.2542    
       185   0             -237.74365      356.21389      103.34386      57.365094      907.93271     -12.889552      5.2601028      3.0406684      8.7226262      7.5539067      30.099516      1983.2542    
       186   0             -237.74365      356.21389      103.34386      57.365094      907.93271     -12.889552      5.2601028      3.0406684      8.7226262      7.5539067      30.099516      1983.2542    
       187   0             -237.74365      356.21389      103.34386      57.365094      907.93271     -12.889552      5.2601028      3.0406684      8.7226262      7.5539067      30.099516      1983.2542    
       188   0             -237.74365      356.21389      103.34386      57.365094      907.93271     -12.889552      5.2601028      3.0406684      8.7226262      7.5539067      30.099516      1983.2542    
       189   0             -237.74365      356.21389      103.34386      57.365094      907.93271     -12.889552      5.2601028      3.0406684      8.7226262      7.5539067      30.099516      1983.2542    
       190   0             -237.74365      356.21389      103.34386      57.365094      907.93271     -12.889552      5.2601028      3.0406684      8.7226262      7.5539067      30.099516      1983.2542    
       191   0             -237.74365      356.21389      103.34386      57.365094      907.93271     -12.889552      5.2601028      3.0406684      8.7226262      7.5539067      30.099516      1983.2542    
       192   0             -237.74365      356.21389      103.34386      57.365094      907.93271     -12.889552      5.2601028      3.0406684      8.7226262      7.5539067      30.099516      1983.2542    
       193   0             -237.74365      356.21389      103.34386      57.365094      907.93271     -12.889552      5.2601028      3.0406684      8.7226262      7.5539067      30.099516      1983.2542    
       194   0             -237.74365      356.21389      103.34386      57.365094      907.93271     -12.889552      5.2601028      3.0406684      8.7226262      7.5539067      30.099516      1983.2542    
       195   0             -237.74365      356.21389      103.34386      57.365094      907.93271     -12.889552      5.2601028      3.0406684      8.7226262      7.5539067      30.099516      1983.2542    
       196   0             -237.74365      356.21389      103.34386      57.365094      907.93271     -12.889552      5.2601028      3.0406684      8.7226262      7.5539067      30.099516      1983.2542    
       197   0             -237.74365      356.21389      103.34386      57.365094      907.93271     -12.889552      5.2601028      3.0406684      8.7226262      7.5539067      30.099516      1983.2542    
       198   0             -237.74365      356.21389      103.34386      57.365094      907.93271     -12.889552      5.2601028      3.0406684      8.7226262      7.5539067      30.099516      1983.2542    
       199   0             -237.74365      356.21389      103.34386      57.365094      907.93271     -12.889552      5.2601028      3.0406684      8.7226262      7.5539067      30.099516      1983.2542    
       200   0             -237.74365      356.21389      103.34386      57.365094      907.93271     -12.889552      5.2601028      3.0406684      8.7226262      7.5539067      30.099516      1983.2542    
Loop time of 0.10372 on 48 procs for 100 steps with 60 atoms

98.4% CPU use with 48 MPI tasks x no OpenMP threads

Minimization stats:
  Stopping criterion = max iterations
  Energy initial, next-to-last, final = 
     -237.626449832638  -237.743648289469  -237.743648289469
  Force two-norm initial, final = 0.87141293 3.2388985e-14
  Force max component initial, final = 0.18113869 8.0352391e-15
  Final line search alpha, max atom move = 1 8.0352391e-15
  Iterations, force evaluations = 100 186

MPI task timing breakdown:
Section |  min time  |  avg time  |  max time  |%varavg| %total
---------------------------------------------------------------
Pair    | 1.9679e-05 | 0.0096839  | 0.030261   |   6.7 |  9.34
Neigh   | 0          | 0          | 0          |   0.0 |  0.00
Comm    | 0.0063644  | 0.023676   | 0.036338   |   4.6 | 22.83
Output  | 0.0040759  | 0.0053768  | 0.062378   |  11.3 |  5.18
Modify  | 0          | 0          | 0          |   0.0 |  0.00
Other   |            | 0.06498    |            |       | 62.65

Nlocal:           1.25 ave           4 max           0 min
Histogram: 9 0 21 0 0 16 0 1 0 1
Nghost:        175.333 ave         183 max         156 min
Histogram: 5 4 3 0 0 0 0 1 11 24
Neighs:              0 ave           0 max           0 min
Histogram: 48 0 0 0 0 0 0 0 0 0
FullNghs:           52 ave         170 max           0 min
Histogram: 9 0 21 0 10 6 0 1 0 1

Total # of neighbors = 2496
Ave neighs/atom = 41.6
Neighbor list builds = 0
Dangerous builds = 0
Reading restart file ...
  restart file = 24 Mar 2022, LAMMPS = 24 Mar 2022
  restoring atom style atomic from restart
  triclinic box = (0.02858141 0.024806646 0.0716689) to (8.7512076 7.5787134 30.171185) with tilt (-4.3612507 0 0)
  3 by 2 by 8 MPI processor grid
  pair style nep stores no restart info
  60 atoms
  read_restart CPU = 0.068 seconds
Use the NEP4 potential with 3 atom types.
    type 0( Bi with Z = 83).
    type 1( Sb with Z = 51).
    type 2( Te with Z = 52).
    has universal ZBL with inner cutoff 1.25 A and outer cutoff 2.5 A.
    radial cutoff = 6 A.
    angular cutoff = 4 A.
    n_max_radial = 6.
    n_max_angular = 6.
    basis_size_radial = 8.
    basis_size_angular = 8.
    l_max_3body = 6.
    l_max_4body = 2.
    l_max_5body = 1.
    ANN = 56-60-1.
    number of neural network parameters = 10441.
    number of descriptor parameters = 1134.
    total number of parameters = 11575.
Changing box ...
  triclinic box = (0.02858141 0.024806646 0.0716689) to (8.7512076 7.5787134 30.171185) with tilt (-4.3612507 0 3.0099516e-05)
Neighbor list info ...
  update every 1 steps, delay 0 steps, check yes
  max neighbors/atom: 2000, page size: 100000
  master list distance cutoff = 7
  ghost atom cutoff = 7
  1 neighbor lists, perpetual/occasional/extra = 1 0 0
  (1) pair nep, perpetual
      attributes: full, newton on
      pair build: full/nsq
      stencil: none
      bin: none
Setting up cg style minimization ...
  Unit style    : metal
  Current step  : 100
Per MPI rank memory allocation (min/avg/max) = 4.085 | 4.085 | 4.085 Mbytes
   Step          Temp          PotEng         Press           Pxx            Pyy            Pzz            Pxy            Pxz            Pyz             Lx             Ly             Lz           Volume    
       100   0             -237.62645     -76.33857      -73.028683     -73.827688     -82.15934       0.8755486      16.528272     -5.9669036      8.7226262      7.5539067      30.099516      1983.2542    
       101   0             -237.66318     -124.78187     -135.11709     -128.74188     -110.48663      1.835019       16.443238     -4.2245012      8.7226262      7.5539067      30.099516      1983.2542    
       102   0             -237.68947     -87.395168     -130.03518     -118.32673     -13.823595      2.8138745      16.099914     -1.0989098      8.7226262      7.5539067      30.099516      1983.2542    
       103   0             -237.70817      16.840399     -73.667691     -59.426842      183.61573      3.1668069      15.546311      1.7209562      8.7226262      7.5539067      30.099516      1983.2542    
       104   0             -237.7218       176.37933      24.484011      36.837044      467.81692      2.1708219      14.689228      2.0935974      8.7226262      7.5539067      30.099516      1983.2542    
       105   0             -237.72988      333.47643      127.14874      133.76606      739.5145      -0.15327301     13.651093     -0.64635388     8.7226262      7.5539067      30.099516      1983.2542    
       106   0             -237.7343       452.50766      207.11828      208.82665      941.57805     -2.8145896      13.151978     -1.788082       8.7226262      7.5539067      30.099516      1983.2542    
       107   0             -237.73693      525.43883      255.38511      253.47362      1067.4578     -5.4333186      13.075106     -0.51738007     8.7226262      7.5539067      30.099516      1983.2542    
       108   0             -237.73873      558.95083      276.35783      270.00794      1130.4867     -7.2257196      12.187223      0.72227921     8.7226262      7.5539067      30.099516      1983.2542    
       109   0             -237.74015      515.78127      239.88454      227.66004      1079.7992     -8.3870857      11.297719      1.4453206      8.7226262      7.5539067      30.099516      1983.2542    
       110   0             -237.74107      588.46         298.53735      280.98348      1185.8592     -7.9315777      8.3791758      1.559792       8.7226262      7.5539067      30.099516      1983.2542    
       111   0             -237.74205      421.82368      163.72404      140.02775      961.71924     -9.1249402      8.5340281      2.0433473      8.7226262      7.5539067      30.099516      1983.2542    
       112   0             -237.74272      457.52507      191.60728      160.41501      1020.5529     -10.536107      8.2912616      2.0061752      8.7226262      7.5539067      30.099516      1983.2542    
       113   0             -237.74319      350.82907      102.84599      65.607074      884.03416     -10.558054      5.8195259      2.3042215      8.7226262      7.5539067      30.099516      1983.2542    
       114   0             -237.74346      325.95562      79.87496       34.815241      863.17666     -11.352695      4.3236493      2.1782209      8.7226262      7.5539067      30.099516      1983.2542    
       115   0             -237.74349      363.58964      110.3898       64.712843      915.66627     -11.936706      5.0178793      1.6275421      8.7226262      7.5539067      30.099516      1983.2542    
       116   0             -237.74356      349.06891      98.352363      53.454369      895.40001     -13.163802      6.3757071      1.4755428      8.7226262      7.5539067      30.099516      1983.2542    
       117   0             -237.74362      381.1562       123.90417      80.588204      938.97623     -12.746346      5.4474942      1.7090816      8.7226262      7.5539067      30.099516      1983.2542    
       118   0             -237.74363      375.27375      119.91328      75.708112      930.19986     -12.221774      4.464038       1.0023848      8.7226262      7.5539067      30.099516      1983.2542    
       119   0             -237.74364      351.62211      101.4151       56.89295       896.55829     -12.462984      4.9085586      2.0197668      8.7226262      7.5539067      30.099516      1983.2542    
       120   0             -237.74364      349.1107       98.527722      54.711266      894.09312     -13.319233      6.5086386      4.0839766      8.7226262      7.5539067      30.099516      1983.2542    
       121   0             -237.74365      351.3692       100.05873      54.77992       899.26896     -13.172474      6.0006512      3.4649768      8.7226262      7.5539067      30.099516      1983.2542    
       122   0             -237.74365      359.22048      106.40684      59.649395      911.60519     -12.802113      4.9971122      2.0598566      8.7226262      7.5539067      30.099516      1983.2542    
       123   0             -237.74365      358.13517      105.32009      58.55805       910.52737     -12.940793      5.23498        2.0888247      8.7226262      7.5539067      30.099516      1983.2542    
       124   0             -237.74365      357.49978      104.6881       58.055788      909.75545     -13.02644       5.4113974      2.2573832      8.7226262      7.5539067      30.099516      1983.2542    
       125   0             -237.74365      356.33271      103.77712      57.156636      908.06439     -12.91452       5.2140243      2.2747367      8.7226262      7.5539067      30.099516      1983.2542    
       126   0             -237.74365      355.96865      103.50938      56.861996      907.53458     -12.892801      5.190519       2.2473741      8.7226262      7.5539067      30.099516      1983.2542    
       127   0             -237.74365      355.9722       103.55768      56.827875      907.53105     -12.908028      5.2410548      2.1728792      8.7226262      7.5539067      30.099516      1983.2542    
       128   0             -237.74365      356.1478       103.7211       56.925398      907.7969      -12.906091      5.2615821      2.1464436      8.7226262      7.5539067      30.099516      1983.2542    
       129   0             -237.74365      356.40159      103.83694      57.178815      908.18901     -12.884487      5.2355214      2.3427331      8.7226262      7.5539067      30.099516      1983.2542    
       130   0             -237.74365      356.29325      103.77845      57.051586      908.04971     -12.906047      5.2845886      2.2936717      8.7226262      7.5539067      30.099516      1983.2542    
       131   0             -237.74365      356.24673      103.76735      56.986312      907.98654     -12.902996      5.2795917      2.2491282      8.7226262      7.5539067      30.099516      1983.2542    
       132   0             -237.74365      356.16985      103.70482      56.923068      907.88166     -12.889059      5.2504719      2.2533674      8.7226262      7.5539067      30.099516      1983.2542    
       133   0             -237.74365      356.21756      103.73482      56.97319       907.94468     -12.884445      5.2429585      2.2768178      8.7226262      7.5539067      30.099516      1983.2542    
       134   0             -237.74365      356.18426      103.71966      56.93713       907.89598     -12.888306      5.2539118      2.2620856      8.7226262      7.5539067      30.099516      1983.2542    
       135   0             -237.74365      356.23774      103.76886      56.97464       907.96972     -12.890042      5.258275       2.2508655      8.7226262      7.5539067      30.099516      1983.2542    
       136   0             -237.74365      356.21351      103.74837      56.957028      907.93514     -12.890186      5.259192       2.2540328      8.7226262      7.5539067      30.099516      1983.2542    
       137   0             -237.74365      356.21972      103.7469       56.968722      907.94353     -12.890554      5.260722       2.2701613      8.7226262      7.5539067      30.099516      1983.2542    
       138   0             -237.74365      356.21385      103.74496      56.961757      907.93484     -12.892247      5.2647823      2.2647729      8.7226262      7.5539067      30.099516      1983.2542    
       139   0             -237.74365      356.21529      103.74873      56.961473      907.93567     -12.891873      5.2646393      2.2599987      8.7226262      7.5539067      30.099516      1983.2542    
       140   0             -237.74365      356.2145       103.74789      56.961962      907.93366     -12.889544      5.260368       2.2612532      8.7226262      7.5539067      30.099516      1983.2542    
       141   0             -237.74365      356.21438      103.74785      56.961983      907.9333      -12.889275      5.259975       2.2614488      8.7226262      7.5539067      30.099516      1983.2542    
       142   0             -237.74365      356.21581      103.74939      56.962647      907.9354      -12.889639      5.2607795      2.2603751      8.7226262      7.5539067      30.099516      1983.2542    
       143   0             -237.74365      356.21545      103.74904      56.962463      907.93485     -12.889977      5.2613636      2.2603881      8.7226262      7.5539067      30.099516      1983.2542    
       144   0             -237.74365      356.2157       103.74866      56.963313      907.93513     -12.890208      5.2616471      2.2616493      8.7226262      7.5539067      30.099516      1983.2542    
       145   0             -237.74365      356.21532      103.74822      56.963203      907.93453     -12.890373      5.2619304      2.2619592      8.7226262      7.5539067      30.099516      1983.2542    
       146   0             -237.74365      356.21545      103.74851      56.963134      907.93472     -12.890344      5.2618437      2.2615527      8.7226262      7.5539067      30.099516      1983.2542    
       147   0             -237.74365      356.21521      103.74844      56.962794      907.93439     -12.890253      5.2616312      2.261258       8.7226262      7.5539067      30.099516      1983.2542    
       148   0             -237.74365      356.21531      103.74848      56.962894      907.93455     -12.890171      5.2614405      2.2613225      8.7226262      7.5539067      30.099516      1983.2542    
       149   0             -237.74365      356.21517      103.74835      56.962777      907.93439     -12.890141      5.2613545      2.2613277      8.7226262      7.5539067      30.099516      1983.2542    
       150   0             -237.74365      356.21517      103.74841      56.962689      907.93442     -12.890184      5.2614079      2.2611354      8.7226262      7.5539067      30.099516      1983.2542    
       151   0             -237.74365      356.21518      103.7484       56.962697      907.93444     -12.890227      5.2614651      2.2611208      8.7226262      7.5539067      30.099516      1983.2542    
       152   0             -237.74365      356.21514      103.74829      56.962738      907.93439     -12.890262      5.2615153      2.2612626      8.7226262      7.5539067      30.099516      1983.2542    
       153   0             -237.74365      356.21519      103.74831      56.962801      907.93446     -12.890279      5.2615508      2.2613028      8.7226262      7.5539067      30.099516      1983.2542    
       154   0             -237.74365      356.21513      103.74826      56.962751      907.93437     -12.890286      5.2615649      2.2613051      8.7226262      7.5539067      30.099516      1983.2542    
       155   0             -237.74365      356.21518      103.74831      56.962788      907.93444     -12.890283      5.2615573      2.2612966      8.7226262      7.5539067      30.099516      1983.2542    
       156   0             -237.74365      356.21515      103.74829      56.962763      907.93441     -12.890276      5.2615449      2.261294       8.7226262      7.5539067      30.099516      1983.2542    
       157   0             -237.74365      356.21516      103.7483       56.962769      907.93442     -12.890275      5.2615428      2.2612879      8.7226262      7.5539067      30.099516      1983.2542    
       158   0             -237.74365      356.21516      103.7483       56.962765      907.93442     -12.890274      5.2615414      2.2612837      8.7226262      7.5539067      30.099516      1983.2542    
       159   0             -237.74365      356.21516      103.7483       56.962768      907.93442     -12.890274      5.2615411      2.2612848      8.7226262      7.5539067      30.099516      1983.2542    
       160   0             -237.74365      356.21516      103.7483       56.962768      907.93442     -12.890277      5.2615455      2.2612907      8.7226262      7.5539067      30.099516      1983.2542    
       161   0             -237.74365      356.21516      103.7483       56.962769      907.93441     -12.890279      5.2615493      2.2612924      8.7226262      7.5539067      30.099516      1983.2542    
       162   0             -237.74365      356.21516      103.7483       56.962769      907.93441     -12.890278      5.2615484      2.2612914      8.7226262      7.5539067      30.099516      1983.2542    
       163   0             -237.74365      356.21516      103.7483       56.962769      907.93442     -12.890277      5.2615467      2.2612906      8.7226262      7.5539067      30.099516      1983.2542    
       164   0             -237.74365      356.21516      103.7483       56.962769      907.93442     -12.890276      5.2615456      2.26129        8.7226262      7.5539067      30.099516      1983.2542    
       165   0             -237.74365      356.21516      103.7483       56.962769      907.93442     -12.890276      5.2615452      2.2612893      8.7226262      7.5539067      30.099516      1983.2542    
       166   0             -237.74365      356.21516      103.7483       56.962769      907.93442     -12.890276      5.261545       2.261289       8.7226262      7.5539067      30.099516      1983.2542    
       167   0             -237.74365      356.21516      103.7483       56.962768      907.93442     -12.890276      5.2615446      2.2612886      8.7226262      7.5539067      30.099516      1983.2542    
       168   0             -237.74365      356.21516      103.7483       56.962769      907.93442     -12.890276      5.2615449      2.261289       8.7226262      7.5539067      30.099516      1983.2542    
       169   0             -237.74365      356.21516      103.7483       56.962768      907.93442     -12.890276      5.261545       2.261289       8.7226262      7.5539067      30.099516      1983.2542    
       170   0             -237.74365      356.21516      103.7483       56.962768      907.93442     -12.890276      5.261545       2.261289       8.7226262      7.5539067      30.099516      1983.2542    
       171   0             -237.74365      356.21516      103.7483       56.962768      907.93442     -12.890276      5.261545       2.261289       8.7226262      7.5539067      30.099516      1983.2542    
       172   0             -237.74365      356.21516      103.7483       56.962769      907.93442     -12.890276      5.261545       2.2612891      8.7226262      7.5539067      30.099516      1983.2542    
       173   0             -237.74365      356.21516      103.7483       56.962769      907.93442     -12.890276      5.261545       2.261289       8.7226262      7.5539067      30.099516      1983.2542    
       174   0             -237.74365      356.21516      103.7483       56.962768      907.93442     -12.890276      5.261545       2.261289       8.7226262      7.5539067      30.099516      1983.2542    
       175   0             -237.74365      356.21516      103.7483       56.962768      907.93442     -12.890276      5.261545       2.261289       8.7226262      7.5539067      30.099516      1983.2542    
       176   0             -237.74365      356.21516      103.7483       56.962768      907.93442     -12.890276      5.261545       2.261289       8.7226262      7.5539067      30.099516      1983.2542    
       177   0             -237.74365      356.21516      103.7483       56.962768      907.93442     -12.890276      5.261545       2.261289       8.7226262      7.5539067      30.099516      1983.2542    
       178   0             -237.74365      356.21516      103.7483       56.962768      907.93442     -12.890276      5.261545       2.261289       8.7226262      7.5539067      30.099516      1983.2542    
       179   0             -237.74365      356.21516      103.7483       56.962768      907.93442     -12.890276      5.261545       2.261289       8.7226262      7.5539067      30.099516      1983.2542    
       180   0             -237.74365      356.21516      103.7483       56.962768      907.93442     -12.890276      5.261545       2.261289       8.7226262      7.5539067      30.099516      1983.2542    
       181   0             -237.74365      356.21516      103.7483       56.962768      907.93442     -12.890276      5.261545       2.261289       8.7226262      7.5539067      30.099516      1983.2542    
       182   0             -237.74365      356.21516      103.7483       56.962768      907.93442     -12.890276      5.261545       2.261289       8.7226262      7.5539067      30.099516      1983.2542    
       183   0             -237.74365      356.21516      103.7483       56.962768      907.93442     -12.890276      5.261545       2.261289       8.7226262      7.5539067      30.099516      1983.2542    
       184   0             -237.74365      356.21516      103.7483       56.962768      907.93442     -12.890276      5.261545       2.261289       8.7226262      7.5539067      30.099516      1983.2542    
       185   0             -237.74365      356.21516      103.7483       56.962768      907.93442     -12.890276      5.261545       2.261289       8.7226262      7.5539067      30.099516      1983.2542    
       186   0             -237.74365      356.21516      103.7483       56.962768      907.93442     -12.890276      5.261545       2.261289       8.7226262      7.5539067      30.099516      1983.2542    
       187   0             -237.74365      356.21516      103.7483       56.962768      907.93442     -12.890276      5.261545       2.261289       8.7226262      7.5539067      30.099516      1983.2542    
       188   0             -237.74365      356.21516      103.7483       56.962768      907.93442     -12.890276      5.261545       2.261289       8.7226262      7.5539067      30.099516      1983.2542    
       189   0             -237.74365      356.21516      103.7483       56.962768      907.93442     -12.890276      5.261545       2.261289       8.7226262      7.5539067      30.099516      1983.2542    
       190   0             -237.74365      356.21516      103.7483       56.962768      907.93442     -12.890276      5.261545       2.261289       8.7226262      7.5539067      30.099516      1983.2542    
       191   0             -237.74365      356.21516      103.7483       56.962768      907.93442     -12.890276      5.261545       2.261289       8.7226262      7.5539067      30.099516      1983.2542    
       192   0             -237.74365      356.21516      103.7483       56.962768      907.93442     -12.890276      5.261545       2.261289       8.7226262      7.5539067      30.099516      1983.2542    
       193   0             -237.74365      356.21516      103.7483       56.962768      907.93442     -12.890276      5.261545       2.261289       8.7226262      7.5539067      30.099516      1983.2542    
       194   0             -237.74365      356.21516      103.7483       56.962768      907.93442     -12.890276      5.261545       2.261289       8.7226262      7.5539067      30.099516      1983.2542    
       195   0             -237.74365      356.21516      103.7483       56.962768      907.93442     -12.890276      5.261545       2.261289       8.7226262      7.5539067      30.099516      1983.2542    
       196   0             -237.74365      356.21516      103.7483       56.962768      907.93442     -12.890276      5.261545       2.261289       8.7226262      7.5539067      30.099516      1983.2542    
       197   0             -237.74365      356.21516      103.7483       56.962768      907.93442     -12.890276      5.261545       2.261289       8.7226262      7.5539067      30.099516      1983.2542    
       198   0             -237.74365      356.21516      103.7483       56.962768      907.93442     -12.890276      5.261545       2.261289       8.7226262      7.5539067      30.099516      1983.2542    
       199   0             -237.74365      356.21516      103.7483       56.962768      907.93442     -12.890276      5.261545       2.261289       8.7226262      7.5539067      30.099516      1983.2542    
       200   0             -237.74365      356.21516      103.7483       56.962768      907.93442     -12.890276      5.261545       2.261289       8.7226262      7.5539067      30.099516      1983.2542    
Loop time of 0.0454165 on 48 procs for 100 steps with 60 atoms

99.6% CPU use with 48 MPI tasks x no OpenMP threads

Minimization stats:
  Stopping criterion = max iterations
  Energy initial, next-to-last, final = 
     -237.626449819353  -237.743648296032  -237.743648296032
  Force two-norm initial, final = 0.87141309 3.378576e-14
  Force max component initial, final = 0.18113942 8.1878948e-15
  Final line search alpha, max atom move = 1 8.1878948e-15
  Iterations, force evaluations = 100 186

MPI task timing breakdown:
Section |  min time  |  avg time  |  max time  |%varavg| %total
---------------------------------------------------------------
Pair    | 2.1811e-05 | 0.0096645  | 0.029902   |   6.6 | 21.28
Neigh   | 0          | 0          | 0          |   0.0 |  0.00
Comm    | 0.0062856  | 0.023475   | 0.035919   |   4.5 | 51.69
Output  | 0.0040242  | 0.0041092  | 0.0045586  |   0.1 |  9.05
Modify  | 0          | 0          | 0          |   0.0 |  0.00
Other   |            | 0.008167   |            |       | 17.98

Nlocal:           1.25 ave           4 max           0 min
Histogram: 9 0 21 0 0 16 0 1 0 1
Nghost:        175.333 ave         183 max         156 min
Histogram: 5 4 3 0 0 0 0 1 11 24
Neighs:              0 ave           0 max           0 min
Histogram: 48 0 0 0 0 0 0 0 0 0
FullNghs:           52 ave         170 max           0 min
Histogram: 9 0 21 0 10 6 0 1 0 1

Total # of neighbors = 2496
Ave neighs/atom = 41.6
Neighbor list builds = 0
Dangerous builds = 0
Reading restart file ...
  restart file = 24 Mar 2022, LAMMPS = 24 Mar 2022
  restoring atom style atomic from restart
  triclinic box = (0.02858141 0.024806646 0.0716689) to (8.7512076 7.5787134 30.171185) with tilt (-4.3612507 0 0)
  3 by 2 by 8 MPI processor grid
  pair style nep stores no restart info
  60 atoms
  read_restart CPU = 0.101 seconds
Use the NEP4 potential with 3 atom types.
    type 0( Bi with Z = 83).
    type 1( Sb with Z = 51).
    type 2( Te with Z = 52).
    has universal ZBL with inner cutoff 1.25 A and outer cutoff 2.5 A.
    radial cutoff = 6 A.
    angular cutoff = 4 A.
    n_max_radial = 6.
    n_max_angular = 6.
    basis_size_radial = 8.
    basis_size_angular = 8.
    l_max_3body = 6.
    l_max_4body = 2.
    l_max_5body = 1.
    ANN = 56-60-1.
    number of neural network parameters = 10441.
    number of descriptor parameters = 1134.
    total number of parameters = 11575.
Changing box ...
  triclinic box = (0.02858141 0.024806646 0.0716689) to (8.7512076 7.5787134 30.171185) with tilt (-4.3612507 -3.0099516e-05 0)
Neighbor list info ...
  update every 1 steps, delay 0 steps, check yes
  max neighbors/atom: 2000, page size: 100000
  master list distance cutoff = 7
  ghost atom cutoff = 7
  1 neighbor lists, perpetual/occasional/extra = 1 0 0
  (1) pair nep, perpetual
      attributes: full, newton on
      pair build: full/nsq
      stencil: none
      bin: none
Setting up cg style minimization ...
  Unit style    : metal
  Current step  : 100
Per MPI rank memory allocation (min/avg/max) = 4.085 | 4.085 | 4.085 Mbytes
   Step          Temp          PotEng         Press           Pxx            Pyy            Pzz            Pxy            Pxz            Pyz             Lx             Ly             Lz           Volume    
       100   0             -237.62645     -76.338889     -73.32892      -73.527864     -82.159883      0.57557348     17.12874      -5.3662103      8.7226262      7.5539067      30.099516      1983.2542    
       101   0             -237.66318     -124.78225     -135.39583     -128.4637      -110.48722      1.5566121      16.996414     -3.6711498      8.7226262      7.5539067      30.099516      1983.2542    
       102   0             -237.68947     -87.395304     -130.29419     -118.06794     -13.823776      2.5550129      16.610157     -0.58863412     8.7226262      7.5539067      30.099516      1983.2542    
       103   0             -237.70817      16.840578     -73.908811     -59.185515      183.61606      2.9255665      16.018071      2.192537       8.7226262      7.5539067      30.099516      1983.2542    
       104   0             -237.7218       176.37984      24.258724      37.062989      467.81779      1.945159       15.127485      2.5314821      8.7226262      7.5539067      30.099516      1983.2542    
       105   0             -237.72988      333.47694      126.93273      133.98278      739.5153      -0.36960609     14.070063     -0.22775061     8.7226262      7.5539067      30.099516      1983.2542    
       106   0             -237.7343       452.50818      206.90766      209.03805      941.57884     -3.0254773      13.560258     -1.380076       8.7226262      7.5539067      30.099516      1983.2542    
       107   0             -237.73693      525.4393       255.17881      253.68062      1067.4585     -5.6398217      13.474837     -0.11790249     8.7226262      7.5539067      30.099516      1983.2542    
       108   0             -237.73873      558.9513       276.15479      270.21171      1130.4874     -7.4289995      12.580671      1.1154309      8.7226262      7.5539067      30.099516      1983.2542    
       109   0             -237.74015      515.78156      239.68296      227.86204      1079.7997     -8.5888111      11.688142      1.8353489      8.7226262      7.5539067      30.099516      1983.2542    
       110   0             -237.74107      588.46091      298.33642      281.18584      1185.8605     -8.1332401      8.7694463      1.9495195      8.7226262      7.5539067      30.099516      1983.2542    
       111   0             -237.74205      421.8227       163.52181      140.22839      961.71791     -9.3265001      8.9240605      2.4326372      8.7226262      7.5539067      30.099516      1983.2542    
       112   0             -237.74272      457.52265      191.40377      160.6146       1020.5496     -10.737905      8.681727       2.3957157      8.7226262      7.5539067      30.099516      1983.2542    
       113   0             -237.74319      350.82449      102.64052      65.805256      884.02768     -10.760107      6.2104087      2.6941212      8.7226262      7.5539067      30.099516      1983.2542    
       114   0             -237.74346      325.94393      79.663532      35.007734      863.16052     -11.555001      4.7148917      2.568332       8.7226262      7.5539067      30.099516      1983.2542    
       115   0             -237.74349      363.58261      110.18244      64.909181      915.65621     -12.138909      5.4090519      2.0176327      8.7226262      7.5539067      30.099516      1983.2542    
       116   0             -237.74356      349.0821       98.161752      53.665763      895.41879     -13.36555       6.7659665      1.8642278      8.7226262      7.5539067      30.099516      1983.2542    
       117   0             -237.74362      381.15163      123.69922      80.785672      938.97        -12.948224      5.8377303      2.0978092      8.7226262      7.5539067      30.099516      1983.2542    
       118   0             -237.74363      375.2899       119.72434      75.922485      930.22287     -12.42409       4.8551566      1.3916512      8.7226262      7.5539067      30.099516      1983.2542    
       119   0             -237.74364      351.62153      101.2133       57.093709      896.55758     -12.664833      5.2987657      2.4081268      8.7226262      7.5539067      30.099516      1983.2542    
       120   0             -237.74364      349.11128      98.326576      54.913531      894.09374     -13.521573      6.8997941      4.4734959      8.7226262      7.5539067      30.099516      1983.2542    
       121   0             -237.74365      351.36865      99.856484      54.981395      899.26807     -13.375018      6.3922651      3.8549736      8.7226262      7.5539067      30.099516      1983.2542    
       122   0             -237.74365      359.2202       106.20508      59.850564      911.60495     -13.004334      5.387982       2.4490429      8.7226262      7.5539067      30.099516      1983.2542    
       123   0             -237.74365      358.13488      105.11843      58.759091      910.52713     -13.14294       5.6257046      2.4778131      8.7226262      7.5539067      30.099516      1983.2542    
       124   0             -237.74365      357.49961      104.48656      58.256884      909.75539     -13.228507      5.8019465      2.6463111      8.7226262      7.5539067      30.099516      1983.2542    
       125   0             -237.74365      356.33285      103.5758       57.358011      908.06475     -13.116656      5.604714       2.6637108      8.7226262      7.5539067      30.099516      1983.2542    
       126   0             -237.74365      355.96844      103.30779      57.063093      907.53444     -13.094893      5.5811155      2.6363424      8.7226262      7.5539067      30.099516      1983.2542    
       127   0             -237.74365      355.972        103.35608      57.028997      907.53091     -13.110116      5.6316308      2.56187        8.7226262      7.5539067      30.099516      1983.2542    
       128   0             -237.74365      356.14751      103.51944      57.126439      907.79663     -13.108193      5.6521882      2.5353997      8.7226262      7.5539067      30.099516      1983.2542    
       129   0             -237.74365      356.40139      103.63535      57.379949      908.18887     -13.086622      5.6261963      2.7317178      8.7226262      7.5539067      30.099516      1983.2542    
       130   0             -237.74365      356.29313      103.57688      57.252826      908.04969     -13.108144      5.6751802      2.6827392      8.7226262      7.5539067      30.099516      1983.2542    
       131   0             -237.74365      356.24657      103.56578      57.187481      907.98645     -13.105127      5.6702597      2.6381179      8.7226262      7.5539067      30.099516      1983.2542    
       132   0             -237.74365      356.16965      103.50324      57.12418       907.88152     -13.091173      5.6411051      2.642328       8.7226262      7.5539067      30.099516      1983.2542    
       133   0             -237.74365      356.21739      103.53325      57.174321      907.94459     -13.086554      5.6335832      2.6657776      8.7226262      7.5539067      30.099516      1983.2542    
       134   0             -237.74365      356.18397      103.51801      57.138178      907.89573     -13.090409      5.6445238      2.6510575      8.7226262      7.5539067      30.099516      1983.2542    
       135   0             -237.74365      356.23749      103.56723      57.175709      907.96952     -13.092146      5.6488918      2.6398301      8.7226262      7.5539067      30.099516      1983.2542    
       136   0             -237.74365      356.21331      103.54679      57.158134      907.935       -13.092293      5.6498139      2.6429952      8.7226262      7.5539067      30.099516      1983.2542    
       137   0             -237.74365      356.21948      103.54529      57.169807      907.94336     -13.092665      5.6513507      2.6591286      8.7226262      7.5539067      30.099516      1983.2542    
       138   0             -237.74365      356.21362      103.54335      57.16285       907.93467     -13.094357      5.6554087      2.6537432      8.7226262      7.5539067      30.099516      1983.2542    
       139   0             -237.74365      356.21506      103.54712      57.162558      907.93549     -13.093983      5.655266       2.6489652      8.7226262      7.5539067      30.099516      1983.2542    
       140   0             -237.74365      356.21427      103.54629      57.163051      907.93349     -13.091654      5.6509937      2.6502183      8.7226262      7.5539067      30.099516      1983.2542    
       141   0             -237.74365      356.21415      103.54624      57.163069      907.93313     -13.091384      5.6505995      2.6504148      8.7226262      7.5539067      30.099516      1983.2542    
       142   0             -237.74365      356.21558      103.54778      57.163734      907.93523     -13.091748      5.651404       2.649341       8.7226262      7.5539067      30.099516      1983.2542    
       143   0             -237.74365      356.21522      103.54743      57.16355       907.93468     -13.092086      5.6519888      2.6493535      8.7226262      7.5539067      30.099516      1983.2542    
       144   0             -237.74365      356.21547      103.54705      57.164401      907.93496     -13.092317      5.6522726      2.6506156      8.7226262      7.5539067      30.099516      1983.2542    
       145   0             -237.74365      356.21509      103.54661      57.16429       907.93436     -13.092483      5.6525561      2.6509254      8.7226262      7.5539067      30.099516      1983.2542    
       146   0             -237.74365      356.21523      103.5469       57.164222      907.93455     -13.092454      5.6524696      2.6505193      8.7226262      7.5539067      30.099516      1983.2542    
       147   0             -237.74365      356.21498      103.54683      57.163882      907.93422     -13.092363      5.6522568      2.650224       8.7226262      7.5539067      30.099516      1983.2542    
       148   0             -237.74365      356.21508      103.54688      57.163982      907.93438     -13.09228       5.6520661      2.6502884      8.7226262      7.5539067      30.099516      1983.2542    
       149   0             -237.74365      356.21494      103.54674      57.163864      907.93422     -13.09225       5.6519799      2.6502937      8.7226262      7.5539067      30.099516      1983.2542    
       150   0             -237.74365      356.21494      103.5468       57.163777      907.93425     -13.092293      5.6520332      2.6501014      8.7226262      7.5539067      30.099516      1983.2542    
       151   0             -237.74365      356.21495      103.5468       57.163784      907.93427     -13.092336      5.6520905      2.6500867      8.7226262      7.5539067      30.099516      1983.2542    
       152   0             -237.74365      356.21491      103.54668      57.163825      907.93422     -13.092371      5.6521407      2.6502287      8.7226262      7.5539067      30.099516      1983.2542    
       153   0             -237.74365      356.21496      103.54671      57.163889      907.93429     -13.092389      5.6521763      2.6502689      8.7226262      7.5539067      30.099516      1983.2542    
       154   0             -237.74365      356.2149       103.54666      57.163839      907.9342      -13.092396      5.6521904      2.6502712      8.7226262      7.5539067      30.099516      1983.2542    
       155   0             -237.74365      356.21495      103.5467       57.163875      907.93427     -13.092392      5.6521829      2.6502627      8.7226262      7.5539067      30.099516      1983.2542    
       156   0             -237.74365      356.21492      103.54668      57.163851      907.93424     -13.092385      5.6521704      2.6502601      8.7226262      7.5539067      30.099516      1983.2542    
       157   0             -237.74365      356.21493      103.54669      57.163856      907.93425     -13.092384      5.6521683      2.650254       8.7226262      7.5539067      30.099516      1983.2542    
       158   0             -237.74365      356.21493      103.54669      57.163852      907.93425     -13.092384      5.6521669      2.6502498      8.7226262      7.5539067      30.099516      1983.2542    
       159   0             -237.74365      356.21493      103.54669      57.163855      907.93425     -13.092384      5.6521666      2.6502509      8.7226262      7.5539067      30.099516      1983.2542    
       160   0             -237.74365      356.21493      103.54669      57.163856      907.93425     -13.092386      5.652171       2.6502568      8.7226262      7.5539067      30.099516      1983.2542    
       161   0             -237.74365      356.21493      103.54669      57.163856      907.93425     -13.092388      5.6521748      2.6502584      8.7226262      7.5539067      30.099516      1983.2542    
       162   0             -237.74365      356.21493      103.54669      57.163856      907.93424     -13.092387      5.652174       2.6502574      8.7226262      7.5539067      30.099516      1983.2542    
       163   0             -237.74365      356.21493      103.54669      57.163856      907.93425     -13.092386      5.6521722      2.6502566      8.7226262      7.5539067      30.099516      1983.2542    
       164   0             -237.74365      356.21493      103.54669      57.163856      907.93425     -13.092386      5.6521711      2.6502561      8.7226262      7.5539067      30.099516      1983.2542    
       165   0             -237.74365      356.21493      103.54669      57.163856      907.93425     -13.092386      5.6521707      2.6502554      8.7226262      7.5539067      30.099516      1983.2542    
       166   0             -237.74365      356.21493      103.54669      57.163856      907.93425     -13.092385      5.6521705      2.650255       8.7226262      7.5539067      30.099516      1983.2542    
       167   0             -237.74365      356.21493      103.54669      57.163856      907.93425     -13.092385      5.6521702      2.6502547      8.7226262      7.5539067      30.099516      1983.2542    
       168   0             -237.74365      356.21493      103.54669      57.163856      907.93425     -13.092385      5.6521704      2.650255       8.7226262      7.5539067      30.099516      1983.2542    
       169   0             -237.74365      356.21493      103.54669      57.163855      907.93425     -13.092386      5.6521705      2.6502551      8.7226262      7.5539067      30.099516      1983.2542    
       170   0             -237.74365      356.21493      103.54669      57.163856      907.93425     -13.092386      5.6521705      2.650255       8.7226262      7.5539067      30.099516      1983.2542    
       171   0             -237.74365      356.21493      103.54669      57.163856      907.93425     -13.092386      5.6521705      2.6502551      8.7226262      7.5539067      30.099516      1983.2542    
       172   0             -237.74365      356.21493      103.54669      57.163856      907.93425     -13.092386      5.6521705      2.6502551      8.7226262      7.5539067      30.099516      1983.2542    
       173   0             -237.74365      356.21493      103.54669      57.163856      907.93425     -13.092386      5.6521705      2.6502551      8.7226262      7.5539067      30.099516      1983.2542    
       174   0             -237.74365      356.21493      103.54669      57.163856      907.93425     -13.092386      5.6521705      2.650255       8.7226262      7.5539067      30.099516      1983.2542    
       175   0             -237.74365      356.21493      103.54669      57.163856      907.93425     -13.092386      5.6521705      2.650255       8.7226262      7.5539067      30.099516      1983.2542    
       176   0             -237.74365      356.21493      103.54669      57.163856      907.93425     -13.092386      5.6521705      2.6502551      8.7226262      7.5539067      30.099516      1983.2542    
       177   0             -237.74365      356.21493      103.54669      57.163856      907.93425     -13.092386      5.6521705      2.6502551      8.7226262      7.5539067      30.099516      1983.2542    
       178   0             -237.74365      356.21493      103.54669      57.163856      907.93425     -13.092386      5.6521705      2.6502551      8.7226262      7.5539067      30.099516      1983.2542    
       179   0             -237.74365      356.21493      103.54669      57.163856      907.93425     -13.092386      5.6521705      2.6502551      8.7226262      7.5539067      30.099516      1983.2542    
       180   0             -237.74365      356.21493      103.54669      57.163856      907.93425     -13.092386      5.6521705      2.6502551      8.7226262      7.5539067      30.099516      1983.2542    
       181   0             -237.74365      356.21493      103.54669      57.163856      907.93425     -13.092386      5.6521705      2.6502551      8.7226262      7.5539067      30.099516      1983.2542    
       182   0             -237.74365      356.21493      103.54669      57.163856      907.93425     -13.092386      5.6521705      2.6502551      8.7226262      7.5539067      30.099516      1983.2542    
       183   0             -237.74365      356.21493      103.54669      57.163856      907.93425     -13.092386      5.6521705      2.6502551      8.7226262      7.5539067      30.099516      1983.2542    
       184   0             -237.74365      356.21493      103.54669      57.163856      907.93425     -13.092386      5.6521705      2.6502551      8.7226262      7.5539067      30.099516      1983.2542    
       185   0             -237.74365      356.21493      103.54669      57.163856      907.93425     -13.092386      5.6521705      2.6502551      8.7226262      7.5539067      30.099516      1983.2542    
       186   0             -237.74365      356.21493      103.54669      57.163856      907.93425     -13.092386      5.6521705      2.6502551      8.7226262      7.5539067      30.099516      1983.2542    
       187   0             -237.74365      356.21493      103.54669      57.163856      907.93425     -13.092386      5.6521705      2.6502551      8.7226262      7.5539067      30.099516      1983.2542    
       188   0             -237.74365      356.21493      103.54669      57.163856      907.93425     -13.092386      5.6521705      2.6502551      8.7226262      7.5539067      30.099516      1983.2542    
       189   0             -237.74365      356.21493      103.54669      57.163856      907.93425     -13.092386      5.6521705      2.6502551      8.7226262      7.5539067      30.099516      1983.2542    
       190   0             -237.74365      356.21493      103.54669      57.163856      907.93425     -13.092386      5.6521705      2.6502551      8.7226262      7.5539067      30.099516      1983.2542    
       191   0             -237.74365      356.21493      103.54669      57.163856      907.93425     -13.092386      5.6521705      2.6502551      8.7226262      7.5539067      30.099516      1983.2542    
       192   0             -237.74365      356.21493      103.54669      57.163856      907.93425     -13.092386      5.6521705      2.6502551      8.7226262      7.5539067      30.099516      1983.2542    
       193   0             -237.74365      356.21493      103.54669      57.163856      907.93425     -13.092386      5.6521705      2.6502551      8.7226262      7.5539067      30.099516      1983.2542    
       194   0             -237.74365      356.21493      103.54669      57.163856      907.93425     -13.092386      5.6521705      2.6502551      8.7226262      7.5539067      30.099516      1983.2542    
       195   0             -237.74365      356.21493      103.54669      57.163856      907.93425     -13.092386      5.6521705      2.6502551      8.7226262      7.5539067      30.099516      1983.2542    
       196   0             -237.74365      356.21493      103.54669      57.163856      907.93425     -13.092386      5.6521705      2.6502551      8.7226262      7.5539067      30.099516      1983.2542    
       197   0             -237.74365      356.21493      103.54669      57.163856      907.93425     -13.092386      5.6521705      2.6502551      8.7226262      7.5539067      30.099516      1983.2542    
       198   0             -237.74365      356.21493      103.54669      57.163856      907.93425     -13.092386      5.6521705      2.6502551      8.7226262      7.5539067      30.099516      1983.2542    
       199   0             -237.74365      356.21493      103.54669      57.163856      907.93425     -13.092386      5.6521705      2.6502551      8.7226262      7.5539067      30.099516      1983.2542    
       200   0             -237.74365      356.21493      103.54669      57.163856      907.93425     -13.092386      5.6521705      2.6502551      8.7226262      7.5539067      30.099516      1983.2542    
Loop time of 0.0456797 on 48 procs for 100 steps with 60 atoms

99.6% CPU use with 48 MPI tasks x no OpenMP threads

Minimization stats:
  Stopping criterion = max iterations
  Energy initial, next-to-last, final = 
     -237.626449805536  -237.743648286237  -237.743648286237
  Force two-norm initial, final = 0.87141301 3.1529274e-14
  Force max component initial, final = 0.18113905 8.6666785e-15
  Final line search alpha, max atom move = 1 8.6666785e-15
  Iterations, force evaluations = 100 186

MPI task timing breakdown:
Section |  min time  |  avg time  |  max time  |%varavg| %total
---------------------------------------------------------------
Pair    | 2.1648e-05 | 0.0096805  | 0.030079   |   6.7 | 21.19
Neigh   | 0          | 0          | 0          |   0.0 |  0.00
Comm    | 0.0063469  | 0.02353    | 0.036039   |   4.5 | 51.51
Output  | 0.0040972  | 0.0041943  | 0.0046711  |   0.1 |  9.18
Modify  | 0          | 0          | 0          |   0.0 |  0.00
Other   |            | 0.008275   |            |       | 18.12

Nlocal:           1.25 ave           4 max           0 min
Histogram: 9 0 21 0 0 16 0 1 0 1
Nghost:        175.333 ave         183 max         156 min
Histogram: 5 4 3 0 0 0 0 1 11 24
Neighs:              0 ave           0 max           0 min
Histogram: 48 0 0 0 0 0 0 0 0 0
FullNghs:           52 ave         170 max           0 min
Histogram: 9 0 21 0 10 6 0 1 0 1

Total # of neighbors = 2496
Ave neighs/atom = 41.6
Neighbor list builds = 0
Dangerous builds = 0
Reading restart file ...
  restart file = 24 Mar 2022, LAMMPS = 24 Mar 2022
  restoring atom style atomic from restart
  triclinic box = (0.02858141 0.024806646 0.0716689) to (8.7512076 7.5787134 30.171185) with tilt (-4.3612507 0 0)
  3 by 2 by 8 MPI processor grid
  pair style nep stores no restart info
  60 atoms
  read_restart CPU = 0.037 seconds
Use the NEP4 potential with 3 atom types.
    type 0( Bi with Z = 83).
    type 1( Sb with Z = 51).
    type 2( Te with Z = 52).
    has universal ZBL with inner cutoff 1.25 A and outer cutoff 2.5 A.
    radial cutoff = 6 A.
    angular cutoff = 4 A.
    n_max_radial = 6.
    n_max_angular = 6.
    basis_size_radial = 8.
    basis_size_angular = 8.
    l_max_3body = 6.
    l_max_4body = 2.
    l_max_5body = 1.
    ANN = 56-60-1.
    number of neural network parameters = 10441.
    number of descriptor parameters = 1134.
    total number of parameters = 11575.
Changing box ...
  triclinic box = (0.02858141 0.024806646 0.0716689) to (8.7512076 7.5787134 30.171185) with tilt (-4.3612507 3.0099516e-05 0)
Neighbor list info ...
  update every 1 steps, delay 0 steps, check yes
  max neighbors/atom: 2000, page size: 100000
  master list distance cutoff = 7
  ghost atom cutoff = 7
  1 neighbor lists, perpetual/occasional/extra = 1 0 0
  (1) pair nep, perpetual
      attributes: full, newton on
      pair build: full/nsq
      stencil: none
      bin: none
Setting up cg style minimization ...
  Unit style    : metal
  Current step  : 100
Per MPI rank memory allocation (min/avg/max) = 4.085 | 4.085 | 4.085 Mbytes
   Step          Temp          PotEng         Press           Pxx            Pyy            Pzz            Pxy            Pxz            Pyz             Lx             Ly             Lz           Volume    
       100   0             -237.62645     -76.338685     -73.328756     -73.52781      -82.15949       1.1754836      15.927787     -5.3661937      8.7226262      7.5539067      30.099516      1983.2542    
       101   0             -237.66318     -124.78206     -135.39569     -128.46366     -110.48683      2.1133913      15.890053     -3.6711414      8.7226262      7.5539067      30.099516      1983.2542    
       102   0             -237.68947     -87.395135     -130.29409     -118.06791     -13.823405      3.0727195      15.589654     -0.58861957     8.7226262      7.5539067      30.099516      1983.2542    
       103   0             -237.70817      16.840676     -73.908793     -59.185495      183.61632      3.4080606      15.074498      2.192585       8.7226262      7.5539067      30.099516      1983.2542    
       104   0             -237.7218       176.37974      24.258545      37.062965      467.81772      2.3965579      14.250822      2.5316242      8.7226262      7.5539067      30.099516      1983.2542    
       105   0             -237.72988      333.47684      126.93243      133.98286      739.51522      0.063242481    13.231804     -0.22743745     8.7226262      7.5539067      30.099516      1983.2542    
       106   0             -237.7343       452.50809      206.90726      209.03825      941.57876     -2.6034063      12.743194     -1.3795721      8.7226262      7.5539067      30.099516      1983.2542    
       107   0             -237.73693      525.43923      255.17836      253.68094      1067.4584     -5.2264325      12.674706     -0.11723234     8.7226262      7.5539067      30.099516      1983.2542    
       108   0             -237.73873      558.95118      276.15425      270.21203      1130.4873     -7.0220055      11.793002      1.1162015      8.7226262      7.5539067      30.099516      1983.2542    
       109   0             -237.74015      515.7811       239.68214      227.86212      1079.799      -8.1849         10.90645       1.8361931      8.7226262      7.5539067      30.099516      1983.2542    
       110   0             -237.74107      588.46116      298.33618      281.1865       1185.8608     -7.7294593      7.9880718      1.9503634      8.7226262      7.5539067      30.099516      1983.2542    
       111   0             -237.74205      421.82557      163.52366      140.23118      961.72188     -8.9228736      8.1430424      2.4335788      8.7226262      7.5539067      30.099516      1983.2542    
       112   0             -237.74272      457.53011      191.40934      160.62113      1020.5599     -10.333807      7.8998187      2.3967088      8.7226262      7.5539067      30.099516      1983.2542    
       113   0             -237.74319      350.83735      102.6505       65.815963      884.04559     -10.355515      5.4277015      2.6951795      8.7226262      7.5539067      30.099516      1983.2542    
       114   0             -237.74346      325.97745      79.690527      35.035326      863.2065      -11.149858      3.9313763      2.5693145      8.7226262      7.5539067      30.099516      1983.2542    
       115   0             -237.74349      363.60263      110.19789      64.92538       915.68463     -11.73403       4.6256464      2.0182844      8.7226262      7.5539067      30.099516      1983.2542    
       116   0             -237.74356      349.04179      98.128252      53.635715      895.3614      -12.961615      5.9844355      1.8668413      8.7226262      7.5539067      30.099516      1983.2542    
       117   0             -237.74362      381.16417      123.70886      80.796454      938.98719     -12.543718      5.0558325      2.099015       8.7226262      7.5539067      30.099516      1983.2542    
       118   0             -237.74363      375.24216      119.68709      75.88442       930.15498     -12.018445      4.0709474      1.3918192      8.7226262      7.5539067      30.099516      1983.2542    
       119   0             -237.74364      351.62185      101.21228      57.095405      896.55787     -12.260803      4.5176949      2.4122172      8.7226262      7.5539067      30.099516      1983.2542    
       120   0             -237.74364      349.10809      98.323111      54.91116       894.08999     -13.116244      6.1162128      4.4751763      8.7226262      7.5539067      30.099516      1983.2542    
       121   0             -237.74365      351.36872      99.856229      54.981247      899.2687      -12.969067      5.6072722      3.8551981      8.7226262      7.5539067      30.099516      1983.2542    
       122   0             -237.74365      359.21932      106.20373      59.850717      911.60352     -12.599188      4.6048532      2.4506606      8.7226262      7.5539067      30.099516      1983.2542    
       123   0             -237.74365      358.1341       105.11719      58.759317      910.52578     -12.737914      4.8427946      2.4793338      8.7226262      7.5539067      30.099516      1983.2542    
       124   0             -237.74365      357.4986       104.48519      58.256919      909.75369     -12.823656      5.0194299      2.6477668      8.7226262      7.5539067      30.099516      1983.2542    
       125   0             -237.74365      356.33098      103.57376      57.357307      908.06186     -12.711621      4.8218234      2.6651235      8.7226262      7.5539067      30.099516      1983.2542    
       126   0             -237.74365      355.9676       103.30657      57.0632        907.53304     -12.689988      4.7984946      2.637749       8.7226262      7.5539067      30.099516      1983.2542    
       127   0             -237.74365      355.97115      103.3549       57.029028      907.52951     -12.705221      4.8490551      2.5631875      8.7226262      7.5539067      30.099516      1983.2542    
       128   0             -237.74365      356.14689      103.51836      57.126738      907.79556     -12.703265      4.8695394      2.5368817      8.7226262      7.5539067      30.099516      1983.2542    
       129   0             -237.74365      356.40049      103.63402      57.38002       908.18742     -12.681628      4.8434019      2.7332109      8.7226262      7.5539067      30.099516      1983.2542    
       130   0             -237.74365      356.29201      103.57555      57.25257       908.04791     -12.703244      4.8925952      2.6839313      8.7226262      7.5539067      30.099516      1983.2542    
       131   0             -237.74365      356.24557      103.56444      57.187409      907.98486     -12.700125      4.8874472      2.6395031      8.7226262      7.5539067      30.099516      1983.2542    
       132   0             -237.74365      356.16877      103.50195      57.124271      907.88008     -12.68622       4.8583944      2.6437911      8.7226262      7.5539067      30.099516      1983.2542    
       133   0             -237.74365      356.21643      103.53191      57.174345      907.94302     -12.681612      4.8508926      2.6672311      8.7226262      7.5539067      30.099516      1983.2542    
       134   0             -237.74365      356.18333      103.51694      57.138432      907.89461     -12.68548       4.8618604      2.6524639      8.7226262      7.5539067      30.099516      1983.2542    
       135   0             -237.74365      356.23674      103.56607      57.175903      907.96825     -12.687213      4.8662166      2.6412609      8.7226262      7.5539067      30.099516      1983.2542    
       136   0             -237.74365      356.21243      103.54551      57.158229      907.93355     -12.687355      4.8671297      2.6444448      8.7226262      7.5539067      30.099516      1983.2542    
       137   0             -237.74365      356.21868      103.54408      57.169967      907.94201     -12.687719      4.8686506      2.6605755      8.7226262      7.5539067      30.099516      1983.2542    
       138   0             -237.74365      356.2128       103.54212      57.162986      907.93329     -12.689413      4.8727147      2.6551783      8.7226262      7.5539067      30.099516      1983.2542    
       139   0             -237.74365      356.21426      103.54591      57.162716      907.93414     -12.689039      4.87257        2.6504074      8.7226262      7.5539067      30.099516      1983.2542    
       140   0             -237.74365      356.21346      103.54506      57.163197      907.93212     -12.68671       4.8682997      2.6516612      8.7226262      7.5539067      30.099516      1983.2542    
       141   0             -237.74365      356.21334      103.54503      57.163222      907.93177     -12.686442      4.8679088      2.6518548      8.7226262      7.5539067      30.099516      1983.2542    
       142   0             -237.74365      356.21477      103.54657      57.163883      907.93386     -12.686806      4.8687134      2.6507819      8.7226262      7.5539067      30.099516      1983.2542    
       143   0             -237.74365      356.21441      103.54621      57.163701      907.93331     -12.687144      4.8692962      2.6507972      8.7226262      7.5539067      30.099516      1983.2542    
       144   0             -237.74365      356.21466      103.54583      57.16455       907.93359     -12.687374      4.8695794      2.6520577      8.7226262      7.5539067      30.099516      1983.2542    
       145   0             -237.74365      356.21428      103.54539      57.164441      907.933       -12.687539      4.8698625      2.6523677      8.7226262      7.5539067      30.099516      1983.2542    
       146   0             -237.74365      356.21441      103.54568      57.16437       907.93319     -12.68751       4.8697755      2.6519603      8.7226262      7.5539067      30.099516      1983.2542    
       147   0             -237.74365      356.21417      103.54561      57.164032      907.93286     -12.68742       4.8695635      2.6516662      8.7226262      7.5539067      30.099516      1983.2542    
       148   0             -237.74365      356.21427      103.54565      57.16413       907.93301     -12.687337      4.8693727      2.6517307      8.7226262      7.5539067      30.099516      1983.2542    
       149   0             -237.74365      356.21413      103.54552      57.164014      907.93285     -12.687307      4.8692869      2.6517357      8.7226262      7.5539067      30.099516      1983.2542    
       150   0             -237.74365      356.21413      103.54558      57.163926      907.93289     -12.68735       4.8693404      2.6515433      8.7226262      7.5539067      30.099516      1983.2542    
       151   0             -237.74365      356.21414      103.54558      57.163934      907.93291     -12.687393      4.8693975      2.6515291      8.7226262      7.5539067      30.099516      1983.2542    
       152   0             -237.74365      356.2141       103.54546      57.163975      907.93285     -12.687428      4.8694476      2.6516709      8.7226262      7.5539067      30.099516      1983.2542    
       153   0             -237.74365      356.21415      103.54549      57.164038      907.93293     -12.687446      4.8694831      2.6517111      8.7226262      7.5539067      30.099516      1983.2542    
       154   0             -237.74365      356.21409      103.54544      57.163989      907.93284     -12.687453      4.8694972      2.6517133      8.7226262      7.5539067      30.099516      1983.2542    
       155   0             -237.74365      356.21414      103.54548      57.164025      907.93291     -12.687449      4.8694896      2.6517048      8.7226262      7.5539067      30.099516      1983.2542    
       156   0             -237.74365      356.21411      103.54546      57.164001      907.93287     -12.687442      4.8694771      2.6517022      8.7226262      7.5539067      30.099516      1983.2542    
       157   0             -237.74365      356.21412      103.54547      57.164006      907.93289     -12.687441      4.8694751      2.6516961      8.7226262      7.5539067      30.099516      1983.2542    
       158   0             -237.74365      356.21412      103.54547      57.164002      907.93289     -12.687441      4.8694737      2.6516919      8.7226262      7.5539067      30.099516      1983.2542    
       159   0             -237.74365      356.21412      103.54548      57.164005      907.93289     -12.687441      4.8694734      2.6516931      8.7226262      7.5539067      30.099516      1983.2542    
       160   0             -237.74365      356.21412      103.54547      57.164006      907.93288     -12.687443      4.8694777      2.6516989      8.7226262      7.5539067      30.099516      1983.2542    
       161   0             -237.74365      356.21412      103.54547      57.164006      907.93288     -12.687445      4.8694815      2.6517006      8.7226262      7.5539067      30.099516      1983.2542    
       162   0             -237.74365      356.21412      103.54547      57.164006      907.93288     -12.687444      4.8694807      2.6516996      8.7226262      7.5539067      30.099516      1983.2542    
       163   0             -237.74365      356.21412      103.54547      57.164006      907.93288     -12.687443      4.8694789      2.6516988      8.7226262      7.5539067      30.099516      1983.2542    
       164   0             -237.74365      356.21412      103.54547      57.164006      907.93288     -12.687443      4.8694778      2.6516983      8.7226262      7.5539067      30.099516      1983.2542    
       165   0             -237.74365      356.21412      103.54547      57.164006      907.93288     -12.687443      4.8694775      2.6516975      8.7226262      7.5539067      30.099516      1983.2542    
       166   0             -237.74365      356.21412      103.54547      57.164006      907.93288     -12.687443      4.8694772      2.6516972      8.7226262      7.5539067      30.099516      1983.2542    
       167   0             -237.74365      356.21412      103.54547      57.164006      907.93288     -12.687442      4.8694769      2.6516969      8.7226262      7.5539067      30.099516      1983.2542    
       168   0             -237.74365      356.21412      103.54547      57.164006      907.93288     -12.687442      4.8694771      2.6516972      8.7226262      7.5539067      30.099516      1983.2542    
       169   0             -237.74365      356.21412      103.54547      57.164005      907.93288     -12.687443      4.8694772      2.6516973      8.7226262      7.5539067      30.099516      1983.2542    
       170   0             -237.74365      356.21412      103.54547      57.164006      907.93288     -12.687443      4.8694773      2.6516972      8.7226262      7.5539067      30.099516      1983.2542    
       171   0             -237.74365      356.21412      103.54547      57.164006      907.93288     -12.687443      4.8694773      2.6516973      8.7226262      7.5539067      30.099516      1983.2542    
       172   0             -237.74365      356.21412      103.54547      57.164006      907.93288     -12.687443      4.8694773      2.6516973      8.7226262      7.5539067      30.099516      1983.2542    
       173   0             -237.74365      356.21412      103.54547      57.164006      907.93288     -12.687443      4.8694773      2.6516973      8.7226262      7.5539067      30.099516      1983.2542    
       174   0             -237.74365      356.21412      103.54547      57.164006      907.93288     -12.687443      4.8694772      2.6516972      8.7226262      7.5539067      30.099516      1983.2542    
       175   0             -237.74365      356.21412      103.54547      57.164006      907.93288     -12.687443      4.8694772      2.6516972      8.7226262      7.5539067      30.099516      1983.2542    
       176   0             -237.74365      356.21412      103.54547      57.164006      907.93288     -12.687443      4.8694772      2.6516972      8.7226262      7.5539067      30.099516      1983.2542    
       177   0             -237.74365      356.21412      103.54547      57.164006      907.93288     -12.687443      4.8694773      2.6516972      8.7226262      7.5539067      30.099516      1983.2542    
       178   0             -237.74365      356.21412      103.54547      57.164006      907.93288     -12.687443      4.8694773      2.6516972      8.7226262      7.5539067      30.099516      1983.2542    
       179   0             -237.74365      356.21412      103.54547      57.164006      907.93288     -12.687443      4.8694773      2.6516972      8.7226262      7.5539067      30.099516      1983.2542    
       180   0             -237.74365      356.21412      103.54547      57.164006      907.93288     -12.687443      4.8694773      2.6516972      8.7226262      7.5539067      30.099516      1983.2542    
       181   0             -237.74365      356.21412      103.54547      57.164006      907.93288     -12.687443      4.8694773      2.6516972      8.7226262      7.5539067      30.099516      1983.2542    
       182   0             -237.74365      356.21412      103.54547      57.164006      907.93288     -12.687443      4.8694773      2.6516972      8.7226262      7.5539067      30.099516      1983.2542    
       183   0             -237.74365      356.21412      103.54547      57.164006      907.93288     -12.687443      4.8694773      2.6516972      8.7226262      7.5539067      30.099516      1983.2542    
       184   0             -237.74365      356.21412      103.54547      57.164006      907.93288     -12.687443      4.8694773      2.6516972      8.7226262      7.5539067      30.099516      1983.2542    
       185   0             -237.74365      356.21412      103.54547      57.164006      907.93288     -12.687443      4.8694773      2.6516972      8.7226262      7.5539067      30.099516      1983.2542    
       186   0             -237.74365      356.21412      103.54547      57.164006      907.93288     -12.687443      4.8694773      2.6516972      8.7226262      7.5539067      30.099516      1983.2542    
       187   0             -237.74365      356.21412      103.54547      57.164006      907.93288     -12.687443      4.8694773      2.6516972      8.7226262      7.5539067      30.099516      1983.2542    
       188   0             -237.74365      356.21412      103.54547      57.164006      907.93288     -12.687443      4.8694773      2.6516972      8.7226262      7.5539067      30.099516      1983.2542    
       189   0             -237.74365      356.21412      103.54547      57.164006      907.93288     -12.687443      4.8694773      2.6516972      8.7226262      7.5539067      30.099516      1983.2542    
       190   0             -237.74365      356.21412      103.54547      57.164006      907.93288     -12.687443      4.8694773      2.6516972      8.7226262      7.5539067      30.099516      1983.2542    
       191   0             -237.74365      356.21412      103.54547      57.164006      907.93288     -12.687443      4.8694773      2.6516972      8.7226262      7.5539067      30.099516      1983.2542    
       192   0             -237.74365      356.21412      103.54547      57.164006      907.93288     -12.687443      4.8694773      2.6516972      8.7226262      7.5539067      30.099516      1983.2542    
       193   0             -237.74365      356.21412      103.54547      57.164006      907.93288     -12.687443      4.8694773      2.6516972      8.7226262      7.5539067      30.099516      1983.2542    
       194   0             -237.74365      356.21412      103.54547      57.164006      907.93288     -12.687443      4.8694773      2.6516972      8.7226262      7.5539067      30.099516      1983.2542    
       195   0             -237.74365      356.21412      103.54547      57.164006      907.93288     -12.687443      4.8694773      2.6516972      8.7226262      7.5539067      30.099516      1983.2542    
       196   0             -237.74365      356.21412      103.54547      57.164006      907.93288     -12.687443      4.8694773      2.6516972      8.7226262      7.5539067      30.099516      1983.2542    
       197   0             -237.74365      356.21412      103.54547      57.164006      907.93288     -12.687443      4.8694773      2.6516972      8.7226262      7.5539067      30.099516      1983.2542    
       198   0             -237.74365      356.21412      103.54547      57.164006      907.93288     -12.687443      4.8694773      2.6516972      8.7226262      7.5539067      30.099516      1983.2542    
       199   0             -237.74365      356.21412      103.54547      57.164006      907.93288     -12.687443      4.8694773      2.6516972      8.7226262      7.5539067      30.099516      1983.2542    
       200   0             -237.74365      356.21412      103.54547      57.164006      907.93288     -12.687443      4.8694773      2.6516972      8.7226262      7.5539067      30.099516      1983.2542    
Loop time of 0.1311 on 48 procs for 100 steps with 60 atoms

98.3% CPU use with 48 MPI tasks x no OpenMP threads

Minimization stats:
  Stopping criterion = max iterations
  Energy initial, next-to-last, final = 
     -237.626449846455  -237.743648299262  -237.743648299262
  Force two-norm initial, final = 0.87141301 3.4025579e-14
  Force max component initial, final = 0.18113906 7.9936058e-15
  Final line search alpha, max atom move = 1 7.9936058e-15
  Iterations, force evaluations = 100 186

MPI task timing breakdown:
Section |  min time  |  avg time  |  max time  |%varavg| %total
---------------------------------------------------------------
Pair    | 2.14e-05   | 0.0097009  | 0.030277   |   6.6 |  7.40
Neigh   | 0          | 0          | 0          |   0.0 |  0.00
Comm    | 0.0063053  | 0.023688   | 0.036345   |   4.5 | 18.07
Output  | 0.0041533  | 0.0060001  | 0.089811   |  15.8 |  4.58
Modify  | 0          | 0          | 0          |   0.0 |  0.00
Other   |            | 0.09171    |            |       | 69.95

Nlocal:           1.25 ave           4 max           0 min
Histogram: 9 0 21 0 0 16 0 1 0 1
Nghost:        175.333 ave         183 max         156 min
Histogram: 5 4 3 0 0 0 0 1 11 24
Neighs:              0 ave           0 max           0 min
Histogram: 48 0 0 0 0 0 0 0 0 0
FullNghs:           52 ave         170 max           0 min
Histogram: 9 0 21 0 10 6 0 1 0 1

Total # of neighbors = 2496
Ave neighs/atom = 41.6
Neighbor list builds = 0
Dangerous builds = 0
Reading restart file ...
  restart file = 24 Mar 2022, LAMMPS = 24 Mar 2022
  restoring atom style atomic from restart
  triclinic box = (0.02858141 0.024806646 0.0716689) to (8.7512076 7.5787134 30.171185) with tilt (-4.3612507 0 0)
  3 by 2 by 8 MPI processor grid
  pair style nep stores no restart info
  60 atoms
  read_restart CPU = 0.047 seconds
Use the NEP4 potential with 3 atom types.
    type 0( Bi with Z = 83).
    type 1( Sb with Z = 51).
    type 2( Te with Z = 52).
    has universal ZBL with inner cutoff 1.25 A and outer cutoff 2.5 A.
    radial cutoff = 6 A.
    angular cutoff = 4 A.
    n_max_radial = 6.
    n_max_angular = 6.
    basis_size_radial = 8.
    basis_size_angular = 8.
    l_max_3body = 6.
    l_max_4body = 2.
    l_max_5body = 1.
    ANN = 56-60-1.
    number of neural network parameters = 10441.
    number of descriptor parameters = 1134.
    total number of parameters = 11575.
Changing box ...
  triclinic box = (0.02858141 0.024806646 0.0716689) to (8.7512076 7.5787134 30.171185) with tilt (-4.3612583 0 0)
Neighbor list info ...
  update every 1 steps, delay 0 steps, check yes
  max neighbors/atom: 2000, page size: 100000
  master list distance cutoff = 7
  ghost atom cutoff = 7
  1 neighbor lists, perpetual/occasional/extra = 1 0 0
  (1) pair nep, perpetual
      attributes: full, newton on
      pair build: full/nsq
      stencil: none
      bin: none
Setting up cg style minimization ...
  Unit style    : metal
  Current step  : 100
Per MPI rank memory allocation (min/avg/max) = 4.085 | 4.085 | 4.085 Mbytes
   Step          Temp          PotEng         Press           Pxx            Pyy            Pzz            Pxy            Pxz            Pyz             Lx             Ly             Lz           Volume    
       100   0             -237.62645     -76.338787     -73.32885      -73.527841     -82.15967       1.2134461      16.228309     -5.3662051      8.7226262      7.5539067      30.099516      1983.2542    
       101   0             -237.66318     -124.78213     -135.39576     -128.46366     -110.48696      2.162985       16.164906     -3.6711477      8.7226262      7.5539067      30.099516      1983.2542    
       102   0             -237.68947     -87.395167     -130.29413     -118.06789     -13.823487      3.132821       15.841147     -0.58861936     8.7226262      7.5539067      30.099516      1983.2542    
       103   0             -237.70817      16.840697     -73.908796     -59.185443      183.61633      3.4775501      15.305122      2.1925893      8.7226262      7.5539067      30.099516      1983.2542    
       104   0             -237.7218       176.37988      24.258626      37.063063      467.81794      2.4741789      14.463522      2.5316196      8.7226262      7.5539067      30.099516      1983.2542    
       105   0             -237.72988      333.47696      126.93253      133.98292      739.51543      0.14549929     13.434588     -0.22747516     8.7226262      7.5539067      30.099516      1983.2542    
       106   0             -237.7343       452.50819      206.90738      209.03825      941.57893     -2.5186016      12.940753     -1.379652       8.7226262      7.5539067      30.099516      1983.2542    
       107   0             -237.73693      525.43932      255.17849      253.6809       1067.4586     -5.1396022      12.868111     -0.11735523     8.7226262      7.5539067      30.099516      1983.2542    
       108   0             -237.73873      558.95128      276.15441      270.21198      1130.4875     -6.9336926      11.983338      1.1160502      8.7226262      7.5539067      30.099516      1983.2542    
       109   0             -237.74015      515.78146      239.6825       227.86227      1079.7996     -8.0959451      11.095364      1.8360213      8.7226262      7.5539067      30.099516      1983.2542    
       110   0             -237.74107      588.46074      298.3359       281.18601      1185.8603     -7.640397       8.1766628      1.9501874      8.7226262      7.5539067      30.099516      1983.2542    
       111   0             -237.74205      421.82342      163.52199      140.22931      961.71897     -8.8340255      8.3318038      2.4333786      8.7226262      7.5539067      30.099516      1983.2542    
       112   0             -237.74272      457.52506      191.4053       160.61691      1020.553      -10.245046      8.0885657      2.3965018      8.7226262      7.5539067      30.099516      1983.2542    
       113   0             -237.74319      350.82806      102.64299      65.808472      884.03273     -10.266947      5.6165413      2.6949528      8.7226262      7.5539067      30.099516      1983.2542    
       114   0             -237.74346      325.95412      79.671395      35.016393      863.17456     -11.06149       4.1202649      2.5691939      8.7226262      7.5539067      30.099516      1983.2542    
       115   0             -237.74349      363.58863      110.18674      64.914323      915.66484     -11.645498      4.8145022      2.0183982      8.7226262      7.5539067      30.099516      1983.2542    
       116   0             -237.74356      349.06904      98.150534      53.656271      895.4003      -12.872778      6.1726856      1.8656362      8.7226262      7.5539067      30.099516      1983.2542    
       117   0             -237.74362      381.15516      123.70152      80.789014      938.97496     -12.455402      5.2446427      2.0987909      8.7226262      7.5539067      30.099516      1983.2542    
       118   0             -237.74363      375.27456      119.71195      75.910528      930.20119     -11.93078       4.2611077      1.3923061      8.7226262      7.5539067      30.099516      1983.2542    
       119   0             -237.74364      351.6212       101.21222      57.094179      896.55721     -12.171799      4.7052249      2.4100211      8.7226262      7.5539067      30.099516      1983.2542    
       120   0             -237.74364      349.10977      98.324644      54.912654      894.092       -13.028008      6.305164       4.4746498      8.7226262      7.5539067      30.099516      1983.2542    
       121   0             -237.74365      351.36819      99.85558       54.981237      899.26775     -12.881292      5.7972331      3.8556601      8.7226262      7.5539067      30.099516      1983.2542    
       122   0             -237.74365      359.21947      106.20385      59.850536      911.60403     -12.510988      4.7937931      2.4501806      8.7226262      7.5539067      30.099516      1983.2542    
       123   0             -237.74365      358.1342       105.11725      58.759105      910.52625     -12.649727      5.0317725      2.4789327      8.7226262      7.5539067      30.099516      1983.2542    
       124   0             -237.74365      357.49884      104.48532      58.256825      909.75438     -12.735388      5.2082129      2.6474108      8.7226262      7.5539067      30.099516      1983.2542    
       125   0             -237.74365      356.33181      103.57436      57.357716      908.06336     -12.623474      5.0108508      2.6647864      8.7226262      7.5539067      30.099516      1983.2542    
       126   0             -237.74365      355.96773      103.3066       57.063053      907.53352     -12.601751      4.9873394      2.637418       8.7226262      7.5539067      30.099516      1983.2542    
       127   0             -237.74365      355.97128      103.3549       57.028934      907.52999     -12.616976      5.03787        2.5629235      8.7226262      7.5539067      30.099516      1983.2542    
       128   0             -237.74365      356.14685      103.51829      57.126459      907.79581     -12.615031      5.0583847      2.5365059      8.7226262      7.5539067      30.099516      1983.2542    
       129   0             -237.74365      356.40065      103.63412      57.379893      908.18793     -12.593423      5.0323144      2.7328193      8.7226262      7.5539067      30.099516      1983.2542    
       130   0             -237.74365      356.29232      103.57566      57.252669      908.04865     -12.614983      5.0813828      2.6837483      8.7226262      7.5539067      30.099516      1983.2542    
       131   0             -237.74365      356.2458       103.56455      57.187384      907.98547     -12.611939      5.0763998      2.639189       8.7226262      7.5539067      30.099516      1983.2542    
       132   0             -237.74365      356.16892      103.50203      57.124133      907.88059     -12.598002      5.0472802      2.643423       8.7226262      7.5539067      30.099516      1983.2542    
       133   0             -237.74365      356.21663      103.53203      57.174254      907.94361     -12.593389      5.0397688      2.6668698      8.7226262      7.5539067      30.099516      1983.2542    
       134   0             -237.74365      356.18332      103.51687      57.138186      907.8949      -12.59725       5.0507222      2.6521359      8.7226262      7.5539067      30.099516      1983.2542    
       135   0             -237.74365      356.2368       103.56606      57.175697      907.96864     -12.598986      5.0550851      2.6409166      8.7226262      7.5539067      30.099516      1983.2542    
       136   0             -237.74365      356.21258      103.54558      57.158091      907.93407     -12.599129      5.0560005      2.6440871      8.7226262      7.5539067      30.099516      1983.2542    
       137   0             -237.74365      356.21878      103.5441       57.169785      907.94245     -12.599496      5.0575276      2.6602201      8.7226262      7.5539067      30.099516      1983.2542    
       138   0             -237.74365      356.21291      103.54216      57.16282       907.93376     -12.601188      5.0615883      2.6548307      8.7226262      7.5539067      30.099516      1983.2542    
       139   0             -237.74365      356.21435      103.54594      57.162535      907.93459     -12.600816      5.0614466      2.6500546      8.7226262      7.5539067      30.099516      1983.2542    
       140   0             -237.74365      356.21357      103.5451       57.163023      907.93258     -12.598487      5.057176       2.6513078      8.7226262      7.5539067      30.099516      1983.2542    
       141   0             -237.74365      356.21344      103.54506      57.163044      907.93222     -12.598217      5.056783       2.6515033      8.7226262      7.5539067      30.099516      1983.2542    
       142   0             -237.74365      356.21487      103.5466       57.163707      907.93432     -12.598582      5.0575873      2.6504299      8.7226262      7.5539067      30.099516      1983.2542    
       143   0             -237.74365      356.21451      103.54624      57.163525      907.93377     -12.59892       5.0581711      2.6504433      8.7226262      7.5539067      30.099516      1983.2542    
       144   0             -237.74365      356.21476      103.54586      57.164375      907.93405     -12.59915       5.0584544      2.6517049      8.7226262      7.5539067      30.099516      1983.2542    
       145   0             -237.74365      356.21438      103.54542      57.164264      907.93346     -12.599315      5.0587377      2.6520148      8.7226262      7.5539067      30.099516      1983.2542    
       146   0             -237.74365      356.21452      103.54572      57.164195      907.93364     -12.599286      5.0586511      2.6516083      8.7226262      7.5539067      30.099516      1983.2542    
       147   0             -237.74365      356.21427      103.54564      57.163856      907.93331     -12.599196      5.0584386      2.6513134      8.7226262      7.5539067      30.099516      1983.2542    
       148   0             -237.74365      356.21437      103.54569      57.163955      907.93347     -12.599114      5.058248       2.6513778      8.7226262      7.5539067      30.099516      1983.2542    
       149   0             -237.74365      356.21423      103.54555      57.163838      907.93331     -12.599083      5.058162       2.6513829      8.7226262      7.5539067      30.099516      1983.2542    
       150   0             -237.74365      356.21424      103.54561      57.16375       907.93335     -12.599126      5.0582154      2.6511907      8.7226262      7.5539067      30.099516      1983.2542    
       151   0             -237.74365      356.21424      103.54561      57.163758      907.93336     -12.599169      5.0582725      2.6511761      8.7226262      7.5539067      30.099516      1983.2542    
       152   0             -237.74365      356.2142       103.5455       57.163799      907.93331     -12.599204      5.0583227      2.651318       8.7226262      7.5539067      30.099516      1983.2542    
       153   0             -237.74365      356.21425      103.54552      57.163862      907.93338     -12.599222      5.0583582      2.6513582      8.7226262      7.5539067      30.099516      1983.2542    
       154   0             -237.74365      356.21419      103.54547      57.163813      907.93329     -12.599229      5.0583723      2.6513605      8.7226262      7.5539067      30.099516      1983.2542    
       155   0             -237.74365      356.21424      103.54551      57.163849      907.93337     -12.599225      5.0583648      2.651352       8.7226262      7.5539067      30.099516      1983.2542    
       156   0             -237.74365      356.21422      103.54549      57.163825      907.93333     -12.599218      5.0583523      2.6513494      8.7226262      7.5539067      30.099516      1983.2542    
       157   0             -237.74365      356.21423      103.54551      57.16383       907.93335     -12.599217      5.0583502      2.6513433      8.7226262      7.5539067      30.099516      1983.2542    
       158   0             -237.74365      356.21422      103.54551      57.163826      907.93334     -12.599217      5.0583489      2.6513391      8.7226262      7.5539067      30.099516      1983.2542    
       159   0             -237.74365      356.21423      103.54551      57.163829      907.93334     -12.599217      5.0583485      2.6513402      8.7226262      7.5539067      30.099516      1983.2542    
       160   0             -237.74365      356.21422      103.5455       57.16383       907.93334     -12.599219      5.0583529      2.6513461      8.7226262      7.5539067      30.099516      1983.2542    
       161   0             -237.74365      356.21422      103.5455       57.16383       907.93334     -12.599221      5.0583567      2.6513478      8.7226262      7.5539067      30.099516      1983.2542    
       162   0             -237.74365      356.21422      103.5455       57.16383       907.93334     -12.59922       5.0583559      2.6513467      8.7226262      7.5539067      30.099516      1983.2542    
       163   0             -237.74365      356.21422      103.5455       57.16383       907.93334     -12.599219      5.0583541      2.6513459      8.7226262      7.5539067      30.099516      1983.2542    
       164   0             -237.74365      356.21422      103.5455       57.16383       907.93334     -12.599219      5.058353       2.6513454      8.7226262      7.5539067      30.099516      1983.2542    
       165   0             -237.74365      356.21422      103.5455       57.16383       907.93334     -12.599219      5.0583526      2.6513447      8.7226262      7.5539067      30.099516      1983.2542    
       166   0             -237.74365      356.21422      103.5455       57.16383       907.93334     -12.599218      5.0583524      2.6513443      8.7226262      7.5539067      30.099516      1983.2542    
       167   0             -237.74365      356.21422      103.5455       57.16383       907.93334     -12.599218      5.0583521      2.651344       8.7226262      7.5539067      30.099516      1983.2542    
       168   0             -237.74365      356.21422      103.5455       57.16383       907.93334     -12.599218      5.0583523      2.6513444      8.7226262      7.5539067      30.099516      1983.2542    
       169   0             -237.74365      356.21422      103.5455       57.163829      907.93334     -12.599219      5.0583524      2.6513444      8.7226262      7.5539067      30.099516      1983.2542    
       170   0             -237.74365      356.21422      103.5455       57.16383       907.93334     -12.599219      5.0583524      2.6513444      8.7226262      7.5539067      30.099516      1983.2542    
       171   0             -237.74365      356.21422      103.5455       57.16383       907.93334     -12.599219      5.0583524      2.6513444      8.7226262      7.5539067      30.099516      1983.2542    
       172   0             -237.74365      356.21422      103.5455       57.16383       907.93334     -12.599219      5.0583524      2.6513444      8.7226262      7.5539067      30.099516      1983.2542    
       173   0             -237.74365      356.21422      103.5455       57.16383       907.93334     -12.599219      5.0583524      2.6513444      8.7226262      7.5539067      30.099516      1983.2542    
       174   0             -237.74365      356.21422      103.5455       57.16383       907.93334     -12.599219      5.0583524      2.6513444      8.7226262      7.5539067      30.099516      1983.2542    
       175   0             -237.74365      356.21422      103.5455       57.16383       907.93334     -12.599219      5.0583524      2.6513444      8.7226262      7.5539067      30.099516      1983.2542    
       176   0             -237.74365      356.21422      103.5455       57.16383       907.93334     -12.599219      5.0583524      2.6513444      8.7226262      7.5539067      30.099516      1983.2542    
       177   0             -237.74365      356.21422      103.5455       57.16383       907.93334     -12.599219      5.0583524      2.6513444      8.7226262      7.5539067      30.099516      1983.2542    
       178   0             -237.74365      356.21422      103.5455       57.16383       907.93334     -12.599219      5.0583524      2.6513444      8.7226262      7.5539067      30.099516      1983.2542    
       179   0             -237.74365      356.21422      103.5455       57.16383       907.93334     -12.599219      5.0583524      2.6513444      8.7226262      7.5539067      30.099516      1983.2542    
       180   0             -237.74365      356.21422      103.5455       57.16383       907.93334     -12.599219      5.0583524      2.6513444      8.7226262      7.5539067      30.099516      1983.2542    
       181   0             -237.74365      356.21422      103.5455       57.16383       907.93334     -12.599219      5.0583524      2.6513444      8.7226262      7.5539067      30.099516      1983.2542    
       182   0             -237.74365      356.21422      103.5455       57.16383       907.93334     -12.599219      5.0583524      2.6513444      8.7226262      7.5539067      30.099516      1983.2542    
       183   0             -237.74365      356.21422      103.5455       57.16383       907.93334     -12.599219      5.0583524      2.6513444      8.7226262      7.5539067      30.099516      1983.2542    
       184   0             -237.74365      356.21422      103.5455       57.16383       907.93334     -12.599219      5.0583524      2.6513444      8.7226262      7.5539067      30.099516      1983.2542    
       185   0             -237.74365      356.21422      103.5455       57.16383       907.93334     -12.599219      5.0583524      2.6513444      8.7226262      7.5539067      30.099516      1983.2542    
       186   0             -237.74365      356.21422      103.5455       57.16383       907.93334     -12.599219      5.0583524      2.6513444      8.7226262      7.5539067      30.099516      1983.2542    
       187   0             -237.74365      356.21422      103.5455       57.16383       907.93334     -12.599219      5.0583524      2.6513444      8.7226262      7.5539067      30.099516      1983.2542    
       188   0             -237.74365      356.21422      103.5455       57.16383       907.93334     -12.599219      5.0583524      2.6513444      8.7226262      7.5539067      30.099516      1983.2542    
       189   0             -237.74365      356.21422      103.5455       57.16383       907.93334     -12.599219      5.0583524      2.6513444      8.7226262      7.5539067      30.099516      1983.2542    
       190   0             -237.74365      356.21422      103.5455       57.16383       907.93334     -12.599219      5.0583524      2.6513444      8.7226262      7.5539067      30.099516      1983.2542    
       191   0             -237.74365      356.21422      103.5455       57.16383       907.93334     -12.599219      5.0583524      2.6513444      8.7226262      7.5539067      30.099516      1983.2542    
       192   0             -237.74365      356.21422      103.5455       57.16383       907.93334     -12.599219      5.0583524      2.6513444      8.7226262      7.5539067      30.099516      1983.2542    
       193   0             -237.74365      356.21422      103.5455       57.16383       907.93334     -12.599219      5.0583524      2.6513444      8.7226262      7.5539067      30.099516      1983.2542    
       194   0             -237.74365      356.21422      103.5455       57.16383       907.93334     -12.599219      5.0583524      2.6513444      8.7226262      7.5539067      30.099516      1983.2542    
       195   0             -237.74365      356.21422      103.5455       57.16383       907.93334     -12.599219      5.0583524      2.6513444      8.7226262      7.5539067      30.099516      1983.2542    
       196   0             -237.74365      356.21422      103.5455       57.16383       907.93334     -12.599219      5.0583524      2.6513444      8.7226262      7.5539067      30.099516      1983.2542    
       197   0             -237.74365      356.21422      103.5455       57.16383       907.93334     -12.599219      5.0583524      2.6513444      8.7226262      7.5539067      30.099516      1983.2542    
       198   0             -237.74365      356.21422      103.5455       57.16383       907.93334     -12.599219      5.0583524      2.6513444      8.7226262      7.5539067      30.099516      1983.2542    
       199   0             -237.74365      356.21422      103.5455       57.16383       907.93334     -12.599219      5.0583524      2.6513444      8.7226262      7.5539067      30.099516      1983.2542    
       200   0             -237.74365      356.21422      103.5455       57.16383       907.93334     -12.599219      5.0583524      2.6513444      8.7226262      7.5539067      30.099516      1983.2542    
Loop time of 0.113446 on 48 procs for 100 steps with 60 atoms

98.3% CPU use with 48 MPI tasks x no OpenMP threads

Minimization stats:
  Stopping criterion = max iterations
  Energy initial, next-to-last, final = 
     -237.626449825074  -237.743648308768  -237.743648308768
  Force two-norm initial, final = 0.87141299 2.9436466e-14
  Force max component initial, final = 0.18113905 1.035283e-14
  Final line search alpha, max atom move = 1 1.035283e-14
  Iterations, force evaluations = 100 186

MPI task timing breakdown:
Section |  min time  |  avg time  |  max time  |%varavg| %total
---------------------------------------------------------------
Pair    | 2.0959e-05 | 0.0096886  | 0.030329   |   6.7 |  8.54
Neigh   | 0          | 0          | 0          |   0.0 |  0.00
Comm    | 0.0062363  | 0.023648   | 0.036368   |   4.6 | 20.85
Output  | 0.0041351  | 0.0056145  | 0.072117   |  12.9 |  4.95
Modify  | 0          | 0          | 0          |   0.0 |  0.00
Other   |            | 0.0745     |            |       | 65.67

Nlocal:           1.25 ave           4 max           0 min
Histogram: 9 0 21 0 0 16 0 1 0 1
Nghost:        175.333 ave         183 max         156 min
Histogram: 5 4 3 0 0 0 0 1 11 24
Neighs:              0 ave           0 max           0 min
Histogram: 48 0 0 0 0 0 0 0 0 0
FullNghs:           52 ave         170 max           0 min
Histogram: 9 0 21 0 10 6 0 1 0 1

Total # of neighbors = 2496
Ave neighs/atom = 41.6
Neighbor list builds = 0
Dangerous builds = 0
Reading restart file ...
  restart file = 24 Mar 2022, LAMMPS = 24 Mar 2022
  restoring atom style atomic from restart
  triclinic box = (0.02858141 0.024806646 0.0716689) to (8.7512076 7.5787134 30.171185) with tilt (-4.3612507 0 0)
  3 by 2 by 8 MPI processor grid
  pair style nep stores no restart info
  60 atoms
  read_restart CPU = 0.088 seconds
Use the NEP4 potential with 3 atom types.
    type 0( Bi with Z = 83).
    type 1( Sb with Z = 51).
    type 2( Te with Z = 52).
    has universal ZBL with inner cutoff 1.25 A and outer cutoff 2.5 A.
    radial cutoff = 6 A.
    angular cutoff = 4 A.
    n_max_radial = 6.
    n_max_angular = 6.
    basis_size_radial = 8.
    basis_size_angular = 8.
    l_max_3body = 6.
    l_max_4body = 2.
    l_max_5body = 1.
    ANN = 56-60-1.
    number of neural network parameters = 10441.
    number of descriptor parameters = 1134.
    total number of parameters = 11575.
Changing box ...
  triclinic box = (0.02858141 0.024806646 0.0716689) to (8.7512076 7.5787134 30.171185) with tilt (-4.3612432 0 0)
Neighbor list info ...
  update every 1 steps, delay 0 steps, check yes
  max neighbors/atom: 2000, page size: 100000
  master list distance cutoff = 7
  ghost atom cutoff = 7
  1 neighbor lists, perpetual/occasional/extra = 1 0 0
  (1) pair nep, perpetual
      attributes: full, newton on
      pair build: full/nsq
      stencil: none
      bin: none
Setting up cg style minimization ...
  Unit style    : metal
  Current step  : 100
Per MPI rank memory allocation (min/avg/max) = 4.085 | 4.085 | 4.085 Mbytes
   Step          Temp          PotEng         Press           Pxx            Pyy            Pzz            Pxy            Pxz            Pyz             Lx             Ly             Lz           Volume    
       100   0             -237.62645     -76.338788     -73.328826     -73.527834     -82.159704      0.53761103     16.828219     -5.3661981      8.7226262      7.5539067      30.099516      1983.2542    
       101   0             -237.66318     -124.78219     -135.39577     -128.4637      -110.48709      1.5070183      16.721561     -3.6711429      8.7226262      7.5539067      30.099516      1983.2542    
       102   0             -237.68947     -87.395272     -130.29415     -118.06797     -13.823696      2.4949114      16.358664     -0.58863369     8.7226262      7.5539067      30.099516      1983.2542    
       103   0             -237.70817      16.840555     -73.908809     -59.185568      183.61604      2.8560769      15.787447      2.1925335      8.7226262      7.5539067      30.099516      1983.2542    
       104   0             -237.7218       176.3797       24.258641      37.06289       467.81757      1.867538       14.914785      2.5314877      8.7226262      7.5539067      30.099516      1983.2542    
       105   0             -237.72988      333.47681      126.93263      133.98273      739.51509     -0.4518629      13.867279     -0.2277117      8.7226262      7.5539067      30.099516      1983.2542    
       106   0             -237.7343       452.50809      206.90754      209.03805      941.57867     -3.110282       13.362699     -1.3799947      8.7226262      7.5539067      30.099516      1983.2542    
       107   0             -237.73693      525.43921      255.17868      253.68066      1067.4583     -5.726652       13.281432     -0.11777813     8.7226262      7.5539067      30.099516      1983.2542    
       108   0             -237.73873      558.95119      276.15462      270.21176      1130.4872     -7.5173125      12.390335      1.1155837      8.7226262      7.5539067      30.099516      1983.2542    
       109   0             -237.74015      515.78119      239.68259      227.86189      1079.7991     -8.677766       11.499228      1.8355225      8.7226262      7.5539067      30.099516      1983.2542    
       110   0             -237.74107      588.46133      298.33669      281.18633      1185.861      -8.2223025      8.5808553      1.9496973      8.7226262      7.5539067      30.099516      1983.2542    
       111   0             -237.74205      421.82485      163.52348      140.23026      961.72083     -9.4153481      8.7352991      2.4328392      8.7226262      7.5539067      30.099516      1983.2542    
       112   0             -237.74272      457.5277       191.4078       160.61881      1020.5565     -10.826666      8.49298        2.3959245      8.7226262      7.5539067      30.099516      1983.2542    
       113   0             -237.74319      350.83377      102.64804      65.812744      884.04053     -10.848675      6.021569       2.6943497      8.7226262      7.5539067      30.099516      1983.2542    
       114   0             -237.74346      325.96725      79.682656      35.026661      863.19244     -11.643369      4.5260031      2.5684543      8.7226262      7.5539067      30.099516      1983.2542    
       115   0             -237.74349      363.59661      110.19359      64.920239      915.676       -12.22744       5.2201959      2.0175209      8.7226262      7.5539067      30.099516      1983.2542    
       116   0             -237.74356      349.05486      98.139476      53.645214      895.3799      -13.454385      6.5777147      1.8654331      8.7226262      7.5539067      30.099516      1983.2542    
       117   0             -237.74362      381.16063      123.70655      80.793106      938.98222     -13.03654       5.6489204      2.0980351      8.7226262      7.5539067      30.099516      1983.2542    
       118   0             -237.74363      375.25758      119.69954      75.896437      930.17676     -12.511756      4.6649991      1.391167       8.7226262      7.5539067      30.099516      1983.2542    
       119   0             -237.74364      351.62216      101.21335      57.094921      896.55821     -12.753834      5.1112308      2.4103185      8.7226262      7.5539067      30.099516      1983.2542    
       120   0             -237.74364      349.10961      98.325049      54.912045      894.09174     -13.60981       6.7108434      4.4740244      8.7226262      7.5539067      30.099516      1983.2542    
       121   0             -237.74365      351.36918      99.857129      54.981402      899.26902     -13.462793      6.2023048      3.854514       8.7226262      7.5539067      30.099516      1983.2542    
       122   0             -237.74365      359.22004      106.20495      59.850744      911.60443     -13.092534      5.1990422      2.4495245      8.7226262      7.5539067      30.099516      1983.2542    
       123   0             -237.74365      358.13478      105.11837      58.7593        910.52665     -13.231127      5.4367271      2.4782161      8.7226262      7.5539067      30.099516      1983.2542    
       124   0             -237.74365      357.49937      104.48643      58.256978      909.7547      -13.316775      5.6131635      2.6466689      8.7226262      7.5539067      30.099516      1983.2542    
       125   0             -237.74365      356.33201      103.5752       57.3576        908.06324     -13.204804      5.4156867      2.6640496      8.7226262      7.5539067      30.099516      1983.2542    
       126   0             -237.74365      355.96832      103.30776      57.063239      907.53395     -13.18313       5.3922706      2.6366752      8.7226262      7.5539067      30.099516      1983.2542    
       127   0             -237.74365      355.97186      103.35608      57.02909       907.53043     -13.198361      5.4428157      2.5621361      8.7226262      7.5539067      30.099516      1983.2542    
       128   0             -237.74365      356.14754      103.51951      57.126716      907.79638     -13.196428      5.463343       2.5357771      8.7226262      7.5539067      30.099516      1983.2542    
       129   0             -237.74365      356.40123      103.63524      57.380075      908.18836     -13.174828      5.4372837      2.7321113      8.7226262      7.5539067      30.099516      1983.2542    
       130   0             -237.74365      356.29282      103.57677      57.252725      908.04895     -13.196405      5.4863927      2.6829237      8.7226262      7.5539067      30.099516      1983.2542    
       131   0             -237.74365      356.24634      103.56566      57.187506      907.98584     -13.193314      5.4813077      2.638434       8.7226262      7.5539067      30.099516      1983.2542    
       132   0             -237.74365      356.1695       103.50316      57.124316      907.88101     -13.179391      5.4522194      2.6426977      8.7226262      7.5539067      30.099516      1983.2542    
       133   0             -237.74365      356.21718      103.53314      57.17441       907.94399     -13.174777      5.444707       2.6661406      8.7226262      7.5539067      30.099516      1983.2542    
       134   0             -237.74365      356.18398      103.51808      57.138422      907.89543     -13.178639      5.4556619      2.6513873      8.7226262      7.5539067      30.099516      1983.2542    
       135   0             -237.74365      356.23742      103.56724      57.175914      907.96912     -13.180374      5.4600234      2.6401762      8.7226262      7.5539067      30.099516      1983.2542    
       136   0             -237.74365      356.21315      103.54671      57.158271      907.93448     -13.180519      5.4609431      2.6433546      8.7226262      7.5539067      30.099516      1983.2542    
       137   0             -237.74365      356.21938      103.54526      57.169988      907.94291     -13.180888      5.4624737      2.6594858      8.7226262      7.5539067      30.099516      1983.2542    
       138   0             -237.74365      356.21351      103.54331      57.163015      907.9342      -13.182581      5.4665351      2.6540926      8.7226262      7.5539067      30.099516      1983.2542    
       139   0             -237.74365      356.21496      103.54709      57.162738      907.93504     -13.182206      5.4663895      2.6493197      8.7226262      7.5539067      30.099516      1983.2542    
       140   0             -237.74365      356.21416      103.54625      57.163223      907.93302     -13.179877      5.4621174      2.6505735      8.7226262      7.5539067      30.099516      1983.2542    
       141   0             -237.74365      356.21404      103.54621      57.163246      907.93267     -13.179608      5.4617254      2.650768       8.7226262      7.5539067      30.099516      1983.2542    
       142   0             -237.74365      356.21547      103.54775      57.163908      907.93477     -13.179973      5.4625301      2.6496948      8.7226262      7.5539067      30.099516      1983.2542    
       143   0             -237.74365      356.21511      103.54739      57.163726      907.93422     -13.180311      5.4631139      2.6497091      8.7226262      7.5539067      30.099516      1983.2542    
       144   0             -237.74365      356.21536      103.54702      57.164575      907.9345      -13.180542      5.4633976      2.65097        8.7226262      7.5539067      30.099516      1983.2542    
       145   0             -237.74365      356.21498      103.54657      57.164465      907.9339      -13.180707      5.463681       2.65128        8.7226262      7.5539067      30.099516      1983.2542    
       146   0             -237.74365      356.21512      103.54687      57.164395      907.93409     -13.180678      5.463594       2.6508731      8.7226262      7.5539067      30.099516      1983.2542    
       147   0             -237.74365      356.21487      103.5468       57.164056      907.93376     -13.180587      5.4633817      2.6505786      8.7226262      7.5539067      30.099516      1983.2542    
       148   0             -237.74365      356.21497      103.54684      57.164156      907.93392     -13.180504      5.4631908      2.6506431      8.7226262      7.5539067      30.099516      1983.2542    
       149   0             -237.74365      356.21483      103.54671      57.164039      907.93376     -13.180474      5.4631048      2.6506482      8.7226262      7.5539067      30.099516      1983.2542    
       150   0             -237.74365      356.21484      103.54677      57.163951      907.93379     -13.180517      5.4631582      2.6504558      8.7226262      7.5539067      30.099516      1983.2542    
       151   0             -237.74365      356.21484      103.54676      57.163959      907.93381     -13.18056       5.4632155      2.6504414      8.7226262      7.5539067      30.099516      1983.2542    
       152   0             -237.74365      356.2148       103.54665      57.164         907.93376     -13.180595      5.4632657      2.6505833      8.7226262      7.5539067      30.099516      1983.2542    
       153   0             -237.74365      356.21485      103.54667      57.164063      907.93383     -13.180613      5.4633012      2.6506235      8.7226262      7.5539067      30.099516      1983.2542    
       154   0             -237.74365      356.21479      103.54662      57.164013      907.93374     -13.18062       5.4633153      2.6506257      8.7226262      7.5539067      30.099516      1983.2542    
       155   0             -237.74365      356.21484      103.54667      57.16405       907.93381     -13.180616      5.4633077      2.6506172      8.7226262      7.5539067      30.099516      1983.2542    
       156   0             -237.74365      356.21482      103.54665      57.164025      907.93378     -13.180609      5.4632953      2.6506146      8.7226262      7.5539067      30.099516      1983.2542    
       157   0             -237.74365      356.21483      103.54666      57.164031      907.93379     -13.180608      5.4632932      2.6506085      8.7226262      7.5539067      30.099516      1983.2542    
       158   0             -237.74365      356.21483      103.54666      57.164027      907.93379     -13.180608      5.4632918      2.6506043      8.7226262      7.5539067      30.099516      1983.2542    
       159   0             -237.74365      356.21483      103.54666      57.16403       907.93379     -13.180608      5.4632915      2.6506055      8.7226262      7.5539067      30.099516      1983.2542    
       160   0             -237.74365      356.21482      103.54666      57.16403       907.93379     -13.18061       5.4632959      2.6506113      8.7226262      7.5539067      30.099516      1983.2542    
       161   0             -237.74365      356.21482      103.54665      57.164031      907.93379     -13.180612      5.4632997      2.650613       8.7226262      7.5539067      30.099516      1983.2542    
       162   0             -237.74365      356.21482      103.54665      57.164031      907.93379     -13.180611      5.4632988      2.650612       8.7226262      7.5539067      30.099516      1983.2542    
       163   0             -237.74365      356.21482      103.54666      57.164031      907.93379     -13.18061       5.4632971      2.6506112      8.7226262      7.5539067      30.099516      1983.2542    
       164   0             -237.74365      356.21482      103.54666      57.164031      907.93379     -13.18061       5.463296       2.6506107      8.7226262      7.5539067      30.099516      1983.2542    
       165   0             -237.74365      356.21482      103.54666      57.164031      907.93379     -13.18061       5.4632956      2.6506099      8.7226262      7.5539067      30.099516      1983.2542    
       166   0             -237.74365      356.21483      103.54666      57.164031      907.93379     -13.18061       5.4632954      2.6506096      8.7226262      7.5539067      30.099516      1983.2542    
       167   0             -237.74365      356.21482      103.54666      57.16403       907.93379     -13.180609      5.463295       2.6506093      8.7226262      7.5539067      30.099516      1983.2542    
       168   0             -237.74365      356.21482      103.54666      57.164031      907.93379     -13.180609      5.4632953      2.6506096      8.7226262      7.5539067      30.099516      1983.2542    
       169   0             -237.74365      356.21482      103.54666      57.16403       907.93379     -13.18061       5.4632954      2.6506097      8.7226262      7.5539067      30.099516      1983.2542    
       170   0             -237.74365      356.21482      103.54666      57.164031      907.93379     -13.18061       5.4632954      2.6506096      8.7226262      7.5539067      30.099516      1983.2542    
       171   0             -237.74365      356.21482      103.54666      57.16403       907.93379     -13.18061       5.4632954      2.6506097      8.7226262      7.5539067      30.099516      1983.2542    
       172   0             -237.74365      356.21482      103.54666      57.164031      907.93379     -13.18061       5.4632954      2.6506097      8.7226262      7.5539067      30.099516      1983.2542    
       173   0             -237.74365      356.21482      103.54666      57.164031      907.93379     -13.18061       5.4632954      2.6506097      8.7226262      7.5539067      30.099516      1983.2542    
       174   0             -237.74365      356.21482      103.54666      57.16403       907.93379     -13.18061       5.4632954      2.6506096      8.7226262      7.5539067      30.099516      1983.2542    
       175   0             -237.74365      356.21482      103.54666      57.16403       907.93379     -13.18061       5.4632954      2.6506096      8.7226262      7.5539067      30.099516      1983.2542    
       176   0             -237.74365      356.21482      103.54666      57.16403       907.93379     -13.18061       5.4632954      2.6506096      8.7226262      7.5539067      30.099516      1983.2542    
       177   0             -237.74365      356.21482      103.54666      57.16403       907.93379     -13.18061       5.4632954      2.6506096      8.7226262      7.5539067      30.099516      1983.2542    
       178   0             -237.74365      356.21482      103.54666      57.16403       907.93379     -13.18061       5.4632954      2.6506096      8.7226262      7.5539067      30.099516      1983.2542    
       179   0             -237.74365      356.21482      103.54666      57.16403       907.93379     -13.18061       5.4632954      2.6506096      8.7226262      7.5539067      30.099516      1983.2542    
       180   0             -237.74365      356.21482      103.54666      57.16403       907.93379     -13.18061       5.4632954      2.6506096      8.7226262      7.5539067      30.099516      1983.2542    
       181   0             -237.74365      356.21482      103.54666      57.16403       907.93379     -13.18061       5.4632954      2.6506096      8.7226262      7.5539067      30.099516      1983.2542    
       182   0             -237.74365      356.21482      103.54666      57.16403       907.93379     -13.18061       5.4632954      2.6506096      8.7226262      7.5539067      30.099516      1983.2542    
       183   0             -237.74365      356.21482      103.54666      57.16403       907.93379     -13.18061       5.4632954      2.6506096      8.7226262      7.5539067      30.099516      1983.2542    
       184   0             -237.74365      356.21482      103.54666      57.16403       907.93379     -13.18061       5.4632954      2.6506096      8.7226262      7.5539067      30.099516      1983.2542    
       185   0             -237.74365      356.21482      103.54666      57.16403       907.93379     -13.18061       5.4632954      2.6506096      8.7226262      7.5539067      30.099516      1983.2542    
       186   0             -237.74365      356.21482      103.54666      57.16403       907.93379     -13.18061       5.4632954      2.6506096      8.7226262      7.5539067      30.099516      1983.2542    
       187   0             -237.74365      356.21482      103.54666      57.16403       907.93379     -13.18061       5.4632954      2.6506096      8.7226262      7.5539067      30.099516      1983.2542    
       188   0             -237.74365      356.21482      103.54666      57.16403       907.93379     -13.18061       5.4632954      2.6506096      8.7226262      7.5539067      30.099516      1983.2542    
       189   0             -237.74365      356.21482      103.54666      57.16403       907.93379     -13.18061       5.4632954      2.6506096      8.7226262      7.5539067      30.099516      1983.2542    
       190   0             -237.74365      356.21482      103.54666      57.16403       907.93379     -13.18061       5.4632954      2.6506096      8.7226262      7.5539067      30.099516      1983.2542    
       191   0             -237.74365      356.21482      103.54666      57.16403       907.93379     -13.18061       5.4632954      2.6506096      8.7226262      7.5539067      30.099516      1983.2542    
       192   0             -237.74365      356.21482      103.54666      57.16403       907.93379     -13.18061       5.4632954      2.6506096      8.7226262      7.5539067      30.099516      1983.2542    
       193   0             -237.74365      356.21482      103.54666      57.16403       907.93379     -13.18061       5.4632954      2.6506096      8.7226262      7.5539067      30.099516      1983.2542    
       194   0             -237.74365      356.21482      103.54666      57.16403       907.93379     -13.18061       5.4632954      2.6506096      8.7226262      7.5539067      30.099516      1983.2542    
       195   0             -237.74365      356.21482      103.54666      57.16403       907.93379     -13.18061       5.4632954      2.6506096      8.7226262      7.5539067      30.099516      1983.2542    
       196   0             -237.74365      356.21482      103.54666      57.16403       907.93379     -13.18061       5.4632954      2.6506096      8.7226262      7.5539067      30.099516      1983.2542    
       197   0             -237.74365      356.21482      103.54666      57.16403       907.93379     -13.18061       5.4632954      2.6506096      8.7226262      7.5539067      30.099516      1983.2542    
       198   0             -237.74365      356.21482      103.54666      57.16403       907.93379     -13.18061       5.4632954      2.6506096      8.7226262      7.5539067      30.099516      1983.2542    
       199   0             -237.74365      356.21482      103.54666      57.16403       907.93379     -13.18061       5.4632954      2.6506096      8.7226262      7.5539067      30.099516      1983.2542    
       200   0             -237.74365      356.21482      103.54666      57.16403       907.93379     -13.18061       5.4632954      2.6506096      8.7226262      7.5539067      30.099516      1983.2542    
Loop time of 0.0459075 on 48 procs for 100 steps with 60 atoms

99.6% CPU use with 48 MPI tasks x no OpenMP threads

Minimization stats:
  Stopping criterion = max iterations
  Energy initial, next-to-last, final = 
     -237.626449827242  -237.743648276856  -237.743648276856
  Force two-norm initial, final = 0.87141303 3.1558892e-14
  Force max component initial, final = 0.18113906 8.5764729e-15
  Final line search alpha, max atom move = 1 8.5764729e-15
  Iterations, force evaluations = 100 186

MPI task timing breakdown:
Section |  min time  |  avg time  |  max time  |%varavg| %total
---------------------------------------------------------------
Pair    | 1.9359e-05 | 0.0096743  | 0.030516   |   6.6 | 21.07
Neigh   | 0          | 0          | 0          |   0.0 |  0.00
Comm    | 0.006157   | 0.023597   | 0.036317   |   4.6 | 51.40
Output  | 0.0038511  | 0.0039353  | 0.0049307  |   0.2 |  8.57
Modify  | 0          | 0          | 0          |   0.0 |  0.00
Other   |            | 0.008701   |            |       | 18.95

Nlocal:           1.25 ave           4 max           0 min
Histogram: 9 0 21 0 0 16 0 1 0 1
Nghost:        175.333 ave         183 max         156 min
Histogram: 5 4 3 0 0 0 0 1 11 24
Neighs:              0 ave           0 max           0 min
Histogram: 48 0 0 0 0 0 0 0 0 0
FullNghs:           52 ave         170 max           0 min
Histogram: 9 0 21 0 10 6 0 1 0 1

Total # of neighbors = 2496
Ave neighs/atom = 41.6
Neighbor list builds = 0
Dangerous builds = 0
=========================================
Components of the Elastic Constant Tensor
=========================================
Elastic Constant C11all = 74.1678189500508 GPa
Elastic Constant C22all = 73.8906449696497 GPa
Elastic Constant C33all = 42.7785079278037 GPa
Elastic Constant C12all = 15.9390767692753 GPa
Elastic Constant C13all = 25.4225335146993 GPa
Elastic Constant C23all = 25.325355384648 GPa
Elastic Constant C44all = 38.968970421468 GPa
Elastic Constant C55all = 39.1346612615599 GPa
Elastic Constant C66all = 29.0695512915049 GPa
Elastic Constant C14all = -20.2215784311138 GPa
Elastic Constant C15all = 0.0615036972724283 GPa
Elastic Constant C16all = -0.0589472084199656 GPa
Elastic Constant C24all = 20.1165460526322 GPa
Elastic Constant C25all = -0.00723683341027481 GPa
Elastic Constant C26all = -0.0100386903752679 GPa
Elastic Constant C34all = -0.0851254438942135 GPa
Elastic Constant C35all = 0.0681518659698668 GPa
Elastic Constant C36all = -0.0230177803524043 GPa
Elastic Constant C45all = -0.0721090680112298 GPa
Elastic Constant C46all = 0.0364743916009899 GPa
Elastic Constant C56all = -20.2471489595325 GPa
=========================================
Average elastic properties (3D non-cubic)
Isotropic Voigt averages from full C_ij
=========================================
Bulk Modulus (Voigt)      = 36.0234336871944 GPa
Shear Modulus (Voigt)     = 29.7113036734987 GPa
Young Modulus (Voigt)   = 69.9130237109853 GPa
Poisson Ratio (Voigt)     = 0.176539146165857
Total wall time: 0:00:05
