! Set=C44  delta=+0.002000
&CONTROL
   calculation      = 'relax'
   verbosity        = 'high'
   restart_mode     = 'from_scratch'
   tstress          = .true.
   tprnfor          = .true.
   outdir           = './'
   etot_conv_thr    = 1e-10
   forc_conv_thr    = 1e-10
   disk_io          = 'none'
   pseudo_dir       = '/home/IITB/multiscale-mechanics/amit.k.singh/PP/PBE_ONCV/'
/
&SYSTEM
   ibrav            = 0
   nat              = 15
   ntyp             = 2
   ecutwfc          = 120.0
   occupations      = 'smearing'
   degauss          = 0.01
   smearing         = 'mp'
   vdw_corr         = 'grimme-d3'
   dftd3_version    = 4
   dftd3_threebody  = .true.
/
&ELECTRONS
   electron_maxstep = 400
   conv_thr         = 1e-12
   mixing_beta      = 0.3
/
&IONS
/
&CELL
/
&FCP
/
&RISM
/
ATOMIC_SPECIES
Bi 208.9804 Bi.UPF
Te 127.6 Te.UPF

K_POINTS automatic
12 12 1  0 0 0

CELL_PARAMETERS angstrom
4.38989458200000 0.00000000000000 0.00000000000000
-2.19494729000000 3.80176022800000 0.00760352045600
0.00000000000000 0.06048570759400 30.24285379700000

ATOMIC_POSITIONS angstrom
Bi 0.0000000000 0.0242023603 12.1011801581  
Bi 0.0000000000 0.0362833473 18.1416736385  
Bi 2.1949472907 1.3116175214 22.1845906397  
Bi 2.1949472907 1.3236988534 28.2252566694  
Bi 0.0000000000 2.5385470816 2.0252006477  
Bi 0.0000000000 2.5506284136 8.0658666773  
Te 0.0000000000 0.0126590835 6.3295417669  
Te 0.0000000000 0.0478266241 23.9133120298  
Te 2.1949472907 1.3000742982 16.4129790362  
Te 2.1949472907 1.2747560334 3.7538466363  
Te 0.0000000000 2.5874899016 26.4966106808  
Te 0.0000000000 2.5621716368 13.8374782809  
Te 0.0000000000 0.0000000000 0.0000000000  
Te 2.1949472907 1.2874154966 10.0835782497  
Te 0.0000000000 2.5748304384 20.1668790674  

