# Converted from Bi2Te3.pwi | 1x1x1 supercell | Bi=1 Sb=2 Te=3

90 atoms
3 atom types

0.000000 31.177481 xlo xhi
0.000000 12.874113 ylo yhi
0.000000 7.545035 zlo zhi
28.395290 18.930194 4.090954 xy xz yz

Masses

1 208.980  # Bi
2 121.760  # Sb
3 127.600  # Te

Atoms  # atomic

1 1 17.589521 3.801225 2.262984
2 1 11.733166 2.535623 1.509533
3 3 23.185658 5.010591 2.982957
4 3 0.000000 0.000000 0.000000
5 3 6.137029 1.326257 0.789561
6 1 27.054618 5.846701 6.035502
7 1 21.198263 4.581100 5.282051
8 3 32.650755 7.056068 6.755474
9 3 9.465097 2.045477 3.772518
10 3 15.602126 3.371734 4.562079
11 1 27.054618 8.092596 2.262984
12 1 21.198263 6.826994 1.509533
13 3 32.650755 9.301962 2.982957
14 3 9.465097 4.291371 0.000000
15 3 15.602126 5.617628 0.789561
16 1 36.519715 10.138072 6.035502
17 1 30.663360 8.872471 5.282051
18 3 42.115852 11.347439 6.755474
19 3 18.930194 6.336848 3.772518
20 3 25.067222 7.663105 4.562079
21 1 36.519715 12.383966 2.262984
22 1 30.663360 11.118365 1.509533
23 3 42.115852 13.593333 2.982957
24 3 18.930194 8.582742 0.000000
25 3 25.067222 9.908999 0.789561
26 1 45.984812 14.429443 6.035502
27 1 40.128456 13.163842 5.282051
28 3 51.580949 15.638810 6.755474
29 3 28.395290 10.628219 3.772518
30 3 34.532319 11.954476 4.562079
31 1 27.982015 3.801225 2.262984
32 1 22.125660 2.535623 1.509533
33 3 33.578152 5.010591 2.982957
34 3 10.392494 -0.000000 -0.000000
35 3 16.529522 1.326257 0.789561
36 1 37.447112 5.846701 6.035502
37 1 31.590756 4.581100 5.282051
38 3 43.043249 7.056068 6.755474
39 3 19.857590 2.045477 3.772518
40 3 25.994619 3.371734 4.562079
41 1 37.447112 8.092596 2.262984
42 1 31.590756 6.826994 1.509533
43 3 43.043249 9.301962 2.982957
44 3 19.857590 4.291371 0.000000
45 3 25.994619 5.617628 0.789561
46 1 46.912208 10.138072 6.035502
47 1 41.055853 8.872471 5.282051
48 3 52.508346 11.347439 6.755474
49 3 29.322687 6.336848 3.772518
50 3 35.459716 7.663105 4.562079
51 1 46.912208 12.383966 2.262984
52 1 41.055853 11.118365 1.509533
53 3 52.508346 13.593333 2.982957
54 3 29.322687 8.582742 0.000000
55 3 35.459716 9.908999 0.789561
56 1 56.377305 14.429443 6.035502
57 1 50.520950 13.163842 5.282051
58 3 61.973442 15.638810 6.755474
59 3 38.787784 10.628219 3.772518
60 3 44.924813 11.954476 4.562079
61 1 38.374508 3.801225 2.262984
62 1 32.518153 2.535623 1.509533
63 3 43.970645 5.010591 2.982957
64 3 20.784987 -0.000000 -0.000000
65 3 26.922016 1.326257 0.789561
66 1 47.839605 5.846701 6.035502
67 1 41.983250 4.581100 5.282051
68 3 53.435742 7.056068 6.755474
69 3 30.250084 2.045477 3.772518
70 3 36.387113 3.371734 4.562079
71 1 47.839605 8.092596 2.262984
72 1 41.983250 6.826994 1.509533
73 3 53.435742 9.301962 2.982957
74 3 30.250084 4.291371 0.000000
75 3 36.387113 5.617628 0.789561
76 1 57.304702 10.138072 6.035502
77 1 51.448347 8.872471 5.282051
78 3 62.900839 11.347439 6.755474
79 3 39.715181 6.336848 3.772518
80 3 45.852210 7.663105 4.562079
81 1 57.304702 12.383966 2.262984
82 1 51.448347 11.118365 1.509533
83 3 62.900839 13.593333 2.982957
84 3 39.715181 8.582742 0.000000
85 3 45.852210 9.908999 0.789561
86 1 66.769799 14.429443 6.035502
87 1 60.913444 13.163842 5.282051
88 3 72.365936 15.638810 6.755474
89 3 49.180278 10.628219 3.772518
90 3 55.317306 11.954476 4.562079
