(written by ASE)

3240 atoms
3 atom types

0.0      26.340866886000001  xlo xhi
0.0            22.811859882  ylo yhi
0.0      181.42847362200001  zlo zhi
           -13.17043344                       0                       0  xy xz yz

Atoms # atomic

1  1  0  0  12.099768757
2  1  0  0  18.138310179600001
3  1  2.1950722402999996  1.2673255487999995  22.179055863000002
4  1  2.1950722402999996  1.2673255487999995  28.217764580299999
5  1  6.0729295666944542e-17  2.5346510976999994  2.0203143563000001
6  1  6.0729295666944542e-17  2.5346510976999994  8.0590230736000006
7  3  0  0  6.3284191978999997
8  3  0  0  23.909659738700004
9  3  2.1950722402999996  1.2673255487999995  16.407702453200002
10  3  2.1950722402999996  1.2673255487999995  3.7509045240000005
11  3  6.0729295666944542e-17  2.5346510976999994  26.487174412600002
12  3  6.0729295666944542e-17  2.5346510976999994  13.8303764835
13  3  0  0  0
14  3  2.1950722402999996  1.2673255487999995  10.079388492600001
15  3  6.0729295666944542e-17  2.5346510976999994  20.158690444100003
16  1  0  0  42.337847694000004
17  1  0  0  48.376389116600009
18  1  2.1950722402999996  1.2673255487999995  52.417134799999999
19  1  2.1950722402999996  1.2673255487999995  58.455843517299996
20  1  6.0729295666944542e-17  2.5346510976999994  32.258393293300003
21  1  6.0729295666944542e-17  2.5346510976999994  38.2971020106
22  3  0  0  36.566498134900009
23  3  0  0  54.147738675700005
24  3  2.1950722402999996  1.2673255487999995  46.6457813902
25  3  2.1950722402999996  1.2673255487999995  33.988983461000004
26  3  6.0729295666944542e-17  2.5346510976999994  56.72525334960001
27  3  6.0729295666944542e-17  2.5346510976999994  44.068455420500008
28  3  0  0  30.238078937000004
29  3  2.1950722402999996  1.2673255487999995  40.317467429600008
30  3  6.0729295666944542e-17  2.5346510976999994  50.3967693811
31  1  0  0  72.575926631000016
32  1  0  0  78.614468053600021
33  1  2.1950722402999996  1.2673255487999995  82.655213737000011
34  1  2.1950722402999996  1.2673255487999995  88.693922454300008
35  1  6.0729295666944542e-17  2.5346510976999994  62.496472230300007
36  1  6.0729295666944542e-17  2.5346510976999994  68.535180947599997
37  3  0  0  66.804577071900013
38  3  0  0  84.385817612700023
39  3  2.1950722402999996  1.2673255487999995  76.883860327200011
40  3  2.1950722402999996  1.2673255487999995  64.227062398000001
41  3  6.0729295666944542e-17  2.5346510976999994  86.963332286600007
42  3  6.0729295666944542e-17  2.5346510976999994  74.306534357500013
43  3  0  0  60.476157874000009
44  3  2.1950722402999996  1.2673255487999995  70.555546366600012
45  3  6.0729295666944542e-17  2.5346510976999994  80.634848318100012
46  1  0  0  102.814005568
47  1  0  0  108.8525469906
48  1  2.1950722402999996  1.2673255487999995  112.89329267400002
49  1  2.1950722402999996  1.2673255487999995  118.93200139130001
50  1  6.0729295666944542e-17  2.5346510976999994  92.734551167300012
51  1  6.0729295666944542e-17  2.5346510976999994  98.773259884600023
52  3  0  0  97.042656008900011
53  3  0  0  114.62389654970002
54  3  2.1950722402999996  1.2673255487999995  107.12193926420002
55  3  2.1950722402999996  1.2673255487999995  94.465141335000027
56  3  6.0729295666944542e-17  2.5346510976999994  117.2014112236
57  3  6.0729295666944542e-17  2.5346510976999994  104.54461329450002
58  3  0  0  90.714236810999992
59  3  2.1950722402999996  1.2673255487999995  100.79362530360002
60  3  6.0729295666944542e-17  2.5346510976999994  110.87292725510002
61  1  0  0  133.05208450500001
62  1  0  0  139.0906259276
63  1  2.1950722402999996  1.2673255487999995  143.13137161099999
64  1  2.1950722402999996  1.2673255487999995  149.17008032830003
65  1  6.0729295666944542e-17  2.5346510976999994  122.97263010430002
66  1  6.0729295666944542e-17  2.5346510976999994  129.01133882159999
67  3  0  0  127.28073494590001
68  3  0  0  144.86197548670003
69  3  2.1950722402999996  1.2673255487999995  137.36001820120001
70  3  2.1950722402999996  1.2673255487999995  124.70322027200002
71  3  6.0729295666944542e-17  2.5346510976999994  147.4394901606
72  3  6.0729295666944542e-17  2.5346510976999994  134.78269223149999
73  3  0  0  120.95231574800002
74  3  2.1950722402999996  1.2673255487999995  131.03170424059999
75  3  6.0729295666944542e-17  2.5346510976999994  141.11100619210001
76  1  0  0  163.29016344199999
77  1  0  0  169.32870486460001
78  1  2.1950722402999996  1.2673255487999995  173.369450548
79  1  2.1950722402999996  1.2673255487999995  179.40815926530004
80  1  6.0729295666944542e-17  2.5346510976999994  153.21070904129999
81  1  6.0729295666944542e-17  2.5346510976999994  159.2494177586
82  3  0  0  157.51881388289999
83  3  0  0  175.10005442369999
84  3  2.1950722402999996  1.2673255487999995  167.59809713819999
85  3  2.1950722402999996  1.2673255487999995  154.94129920899999
86  3  6.0729295666944542e-17  2.5346510976999994  177.67756909760001
87  3  6.0729295666944542e-17  2.5346510976999994  165.0207711685
88  3  0  0  151.19039468500003
89  3  2.1950722402999996  1.2673255487999995  161.2697831776
90  3  6.0729295666944542e-17  2.5346510976999994  171.34908512909999
91  1  -2.1950722399999996  3.8019766469999996  12.099768757
92  1  -2.1950722399999996  3.8019766469999996  18.138310179600001
93  1  3.0000002559056028e-10  5.0693021957999989  22.179055863000002
94  1  3.0000002559056028e-10  5.0693021957999989  28.217764580299999
95  1  -2.19507224  6.3366277446999986  2.0203143563000001
96  1  -2.19507224  6.3366277446999986  8.0590230736000006
97  3  -2.1950722399999996  3.8019766469999996  6.3284191978999997
98  3  -2.1950722399999996  3.8019766469999996  23.909659738700004
99  3  3.0000002559056028e-10  5.0693021957999989  16.407702453200002
100  3  3.0000002559056028e-10  5.0693021957999989  3.7509045240000005
101  3  -2.19507224  6.3366277446999986  26.487174412600002
102  3  -2.19507224  6.3366277446999986  13.8303764835
103  3  -2.1950722399999996  3.8019766469999996  0
104  3  3.0000002559056028e-10  5.0693021957999989  10.079388492600001
105  3  -2.19507224  6.3366277446999986  20.158690444100003
106  1  -2.1950722399999996  3.8019766469999996  42.337847694000004
107  1  -2.1950722399999996  3.8019766469999996  48.376389116600009
108  1  3.0000002559056028e-10  5.0693021957999989  52.417134799999999
109  1  3.0000002559056028e-10  5.0693021957999989  58.455843517299996
110  1  -2.19507224  6.3366277446999986  32.258393293300003
111  1  -2.19507224  6.3366277446999986  38.2971020106
112  3  -2.1950722399999996  3.8019766469999996  36.566498134900009
113  3  -2.1950722399999996  3.8019766469999996  54.147738675700005
114  3  3.0000002559056028e-10  5.0693021957999989  46.6457813902
115  3  3.0000002559056028e-10  5.0693021957999989  33.988983461000004
116  3  -2.19507224  6.3366277446999986  56.72525334960001
117  3  -2.19507224  6.3366277446999986  44.068455420500008
118  3  -2.1950722399999996  3.8019766469999996  30.238078937000004
119  3  3.0000002559056028e-10  5.0693021957999989  40.317467429600008
120  3  -2.19507224  6.3366277446999986  50.3967693811
121  1  -2.1950722399999996  3.8019766469999996  72.575926631000016
122  1  -2.1950722399999996  3.8019766469999996  78.614468053600021
123  1  3.0000002559056028e-10  5.0693021957999989  82.655213737000011
124  1  3.0000002559056028e-10  5.0693021957999989  88.693922454300008
125  1  -2.19507224  6.3366277446999986  62.496472230300007
126  1  -2.19507224  6.3366277446999986  68.535180947599997
127  3  -2.1950722399999996  3.8019766469999996  66.804577071900013
128  3  -2.1950722399999996  3.8019766469999996  84.385817612700023
129  3  3.0000002559056028e-10  5.0693021957999989  76.883860327200011
130  3  3.0000002559056028e-10  5.0693021957999989  64.227062398000001
131  3  -2.19507224  6.3366277446999986  86.963332286600007
132  3  -2.19507224  6.3366277446999986  74.306534357500013
133  3  -2.1950722399999996  3.8019766469999996  60.476157874000009
134  3  3.0000002559056028e-10  5.0693021957999989  70.555546366600012
135  3  -2.19507224  6.3366277446999986  80.634848318100012
136  1  -2.1950722399999996  3.8019766469999996  102.814005568
137  1  -2.1950722399999996  3.8019766469999996  108.8525469906
138  1  3.0000002559056028e-10  5.0693021957999989  112.89329267400002
139  1  3.0000002559056028e-10  5.0693021957999989  118.93200139130001
140  1  -2.19507224  6.3366277446999986  92.734551167300012
141  1  -2.19507224  6.3366277446999986  98.773259884600023
142  3  -2.1950722399999996  3.8019766469999996  97.042656008900011
143  3  -2.1950722399999996  3.8019766469999996  114.62389654970002
144  3  3.0000002559056028e-10  5.0693021957999989  107.12193926420002
145  3  3.0000002559056028e-10  5.0693021957999989  94.465141335000027
146  3  -2.19507224  6.3366277446999986  117.2014112236
147  3  -2.19507224  6.3366277446999986  104.54461329450002
148  3  -2.1950722399999996  3.8019766469999996  90.714236810999992
149  3  3.0000002559056028e-10  5.0693021957999989  100.79362530360002
150  3  -2.19507224  6.3366277446999986  110.87292725510002
151  1  -2.1950722399999996  3.8019766469999996  133.05208450500001
152  1  -2.1950722399999996  3.8019766469999996  139.0906259276
153  1  3.0000002559056028e-10  5.0693021957999989  143.13137161099999
154  1  3.0000002559056028e-10  5.0693021957999989  149.17008032830003
155  1  -2.19507224  6.3366277446999986  122.97263010430002
156  1  -2.19507224  6.3366277446999986  129.01133882159999
157  3  -2.1950722399999996  3.8019766469999996  127.28073494590001
158  3  -2.1950722399999996  3.8019766469999996  144.86197548670003
159  3  3.0000002559056028e-10  5.0693021957999989  137.36001820120001
160  3  3.0000002559056028e-10  5.0693021957999989  124.70322027200002
161  3  -2.19507224  6.3366277446999986  147.4394901606
162  3  -2.19507224  6.3366277446999986  134.78269223149999
163  3  -2.1950722399999996  3.8019766469999996  120.95231574800002
164  3  3.0000002559056028e-10  5.0693021957999989  131.03170424059999
165  3  -2.19507224  6.3366277446999986  141.11100619210001
166  1  -2.1950722399999996  3.8019766469999996  163.29016344199999
167  1  -2.1950722399999996  3.8019766469999996  169.32870486460001
168  1  3.0000002559056028e-10  5.0693021957999989  173.369450548
169  1  3.0000002559056028e-10  5.0693021957999989  179.40815926530004
170  1  -2.19507224  6.3366277446999986  153.21070904129999
171  1  -2.19507224  6.3366277446999986  159.2494177586
172  3  -2.1950722399999996  3.8019766469999996  157.51881388289999
173  3  -2.1950722399999996  3.8019766469999996  175.10005442369999
174  3  3.0000002559056028e-10  5.0693021957999989  167.59809713819999
175  3  3.0000002559056028e-10  5.0693021957999989  154.94129920899999
176  3  -2.19507224  6.3366277446999986  177.67756909760001
177  3  -2.19507224  6.3366277446999986  165.0207711685
178  3  -2.1950722399999996  3.8019766469999996  151.19039468500003
179  3  3.0000002559056028e-10  5.0693021957999989  161.2697831776
180  3  -2.19507224  6.3366277446999986  171.34908512909999
181  1  -4.3901444799999991  7.6039532939999992  12.099768757
182  1  -4.3901444799999991  7.6039532939999992  18.138310179600001
183  1  -2.1950722396999995  8.8712788427999989  22.179055863000002
184  1  -2.1950722396999995  8.8712788427999989  28.217764580299999
185  1  -4.3901444799999991  10.138604391699998  2.0203143563000001
186  1  -4.3901444799999991  10.138604391699998  8.0590230736000006
187  3  -4.3901444799999991  7.6039532939999992  6.3284191978999997
188  3  -4.3901444799999991  7.6039532939999992  23.909659738700004
189  3  -2.1950722396999995  8.8712788427999989  16.407702453200002
190  3  -2.1950722396999995  8.8712788427999989  3.7509045240000005
191  3  -4.3901444799999991  10.138604391699998  26.487174412600002
192  3  -4.3901444799999991  10.138604391699998  13.8303764835
193  3  -4.3901444799999991  7.6039532939999992  0
194  3  -2.1950722396999995  8.8712788427999989  10.079388492600001
195  3  -4.3901444799999991  10.138604391699998  20.158690444100003
196  1  -4.3901444799999991  7.6039532939999992  42.337847694000004
197  1  -4.3901444799999991  7.6039532939999992  48.376389116600009
198  1  -2.1950722396999995  8.8712788427999989  52.417134799999999
199  1  -2.1950722396999995  8.8712788427999989  58.455843517299996
200  1  -4.3901444799999991  10.138604391699998  32.258393293300003
201  1  -4.3901444799999991  10.138604391699998  38.2971020106
202  3  -4.3901444799999991  7.6039532939999992  36.566498134900009
203  3  -4.3901444799999991  7.6039532939999992  54.147738675700005
204  3  -2.1950722396999995  8.8712788427999989  46.6457813902
205  3  -2.1950722396999995  8.8712788427999989  33.988983461000004
206  3  -4.3901444799999991  10.138604391699998  56.72525334960001
207  3  -4.3901444799999991  10.138604391699998  44.068455420500008
208  3  -4.3901444799999991  7.6039532939999992  30.238078937000004
209  3  -2.1950722396999995  8.8712788427999989  40.317467429600008
210  3  -4.3901444799999991  10.138604391699998  50.3967693811
211  1  -4.3901444799999991  7.6039532939999992  72.575926631000016
212  1  -4.3901444799999991  7.6039532939999992  78.614468053600021
213  1  -2.1950722396999995  8.8712788427999989  82.655213737000011
214  1  -2.1950722396999995  8.8712788427999989  88.693922454300008
215  1  -4.3901444799999991  10.138604391699998  62.496472230300007
216  1  -4.3901444799999991  10.138604391699998  68.535180947599997
217  3  -4.3901444799999991  7.6039532939999992  66.804577071900013
218  3  -4.3901444799999991  7.6039532939999992  84.385817612700023
219  3  -2.1950722396999995  8.8712788427999989  76.883860327200011
220  3  -2.1950722396999995  8.8712788427999989  64.227062398000001
221  3  -4.3901444799999991  10.138604391699998  86.963332286600007
222  3  -4.3901444799999991  10.138604391699998  74.306534357500013
223  3  -4.3901444799999991  7.6039532939999992  60.476157874000009
224  3  -2.1950722396999995  8.8712788427999989  70.555546366600012
225  3  -4.3901444799999991  10.138604391699998  80.634848318100012
226  1  -4.3901444799999991  7.6039532939999992  102.814005568
227  1  -4.3901444799999991  7.6039532939999992  108.8525469906
228  1  -2.1950722396999995  8.8712788427999989  112.89329267400002
229  1  -2.1950722396999995  8.8712788427999989  118.93200139130001
230  1  -4.3901444799999991  10.138604391699998  92.734551167300012
231  1  -4.3901444799999991  10.138604391699998  98.773259884600023
232  3  -4.3901444799999991  7.6039532939999992  97.042656008900011
233  3  -4.3901444799999991  7.6039532939999992  114.62389654970002
234  3  -2.1950722396999995  8.8712788427999989  107.12193926420002
235  3  -2.1950722396999995  8.8712788427999989  94.465141335000027
236  3  -4.3901444799999991  10.138604391699998  117.2014112236
237  3  -4.3901444799999991  10.138604391699998  104.54461329450002
238  3  -4.3901444799999991  7.6039532939999992  90.714236810999992
239  3  -2.1950722396999995  8.8712788427999989  100.79362530360002
240  3  -4.3901444799999991  10.138604391699998  110.87292725510002
241  1  -4.3901444799999991  7.6039532939999992  133.05208450500001
242  1  -4.3901444799999991  7.6039532939999992  139.0906259276
243  1  -2.1950722396999995  8.8712788427999989  143.13137161099999
244  1  -2.1950722396999995  8.8712788427999989  149.17008032830003
245  1  -4.3901444799999991  10.138604391699998  122.97263010430002
246  1  -4.3901444799999991  10.138604391699998  129.01133882159999
247  3  -4.3901444799999991  7.6039532939999992  127.28073494590001
248  3  -4.3901444799999991  7.6039532939999992  144.86197548670003
249  3  -2.1950722396999995  8.8712788427999989  137.36001820120001
250  3  -2.1950722396999995  8.8712788427999989  124.70322027200002
251  3  -4.3901444799999991  10.138604391699998  147.4394901606
252  3  -4.3901444799999991  10.138604391699998  134.78269223149999
253  3  -4.3901444799999991  7.6039532939999992  120.95231574800002
254  3  -2.1950722396999995  8.8712788427999989  131.03170424059999
255  3  -4.3901444799999991  10.138604391699998  141.11100619210001
256  1  -4.3901444799999991  7.6039532939999992  163.29016344199999
257  1  -4.3901444799999991  7.6039532939999992  169.32870486460001
258  1  -2.1950722396999995  8.8712788427999989  173.369450548
259  1  -2.1950722396999995  8.8712788427999989  179.40815926530004
260  1  -4.3901444799999991  10.138604391699998  153.21070904129999
261  1  -4.3901444799999991  10.138604391699998  159.2494177586
262  3  -4.3901444799999991  7.6039532939999992  157.51881388289999
263  3  -4.3901444799999991  7.6039532939999992  175.10005442369999
264  3  -2.1950722396999995  8.8712788427999989  167.59809713819999
265  3  -2.1950722396999995  8.8712788427999989  154.94129920899999
266  3  -4.3901444799999991  10.138604391699998  177.67756909760001
267  3  -4.3901444799999991  10.138604391699998  165.0207711685
268  3  -4.3901444799999991  7.6039532939999992  151.19039468500003
269  3  -2.1950722396999995  8.8712788427999989  161.2697831776
270  3  -4.3901444799999991  10.138604391699998  171.34908512909999
271  1  -6.5852167199999991  11.405929940999997  12.099768757
272  1  -6.5852167199999991  11.405929940999997  18.138310179600001
273  1  -4.3901444796999991  12.673255489799997  22.179055863000002
274  1  -4.3901444796999991  12.673255489799997  28.217764580299999
275  1  -6.5852167199999991  13.940581038699998  2.0203143563000001
276  1  -6.5852167199999991  13.940581038699998  8.0590230736000006
277  3  -6.5852167199999991  11.405929940999997  6.3284191978999997
278  3  -6.5852167199999991  11.405929940999997  23.909659738700004
279  3  -4.3901444796999991  12.673255489799997  16.407702453200002
280  3  -4.3901444796999991  12.673255489799997  3.7509045240000005
281  3  -6.5852167199999991  13.940581038699998  26.487174412600002
282  3  -6.5852167199999991  13.940581038699998  13.8303764835
283  3  -6.5852167199999991  11.405929940999997  0
284  3  -4.3901444796999991  12.673255489799997  10.079388492600001
285  3  -6.5852167199999991  13.940581038699998  20.158690444100003
286  1  -6.5852167199999991  11.405929940999997  42.337847694000004
287  1  -6.5852167199999991  11.405929940999997  48.376389116600009
288  1  -4.3901444796999991  12.673255489799997  52.417134799999999
289  1  -4.3901444796999991  12.673255489799997  58.455843517299996
290  1  -6.5852167199999991  13.940581038699998  32.258393293300003
291  1  -6.5852167199999991  13.940581038699998  38.2971020106
292  3  -6.5852167199999991  11.405929940999997  36.566498134900009
293  3  -6.5852167199999991  11.405929940999997  54.147738675700005
294  3  -4.3901444796999991  12.673255489799997  46.6457813902
295  3  -4.3901444796999991  12.673255489799997  33.988983461000004
296  3  -6.5852167199999991  13.940581038699998  56.72525334960001
297  3  -6.5852167199999991  13.940581038699998  44.068455420500008
298  3  -6.5852167199999991  11.405929940999997  30.238078937000004
299  3  -4.3901444796999991  12.673255489799997  40.317467429600008
300  3  -6.5852167199999991  13.940581038699998  50.3967693811
301  1  -6.5852167199999991  11.405929940999997  72.575926631000016
302  1  -6.5852167199999991  11.405929940999997  78.614468053600021
303  1  -4.3901444796999991  12.673255489799997  82.655213737000011
304  1  -4.3901444796999991  12.673255489799997  88.693922454300008
305  1  -6.5852167199999991  13.940581038699998  62.496472230300007
306  1  -6.5852167199999991  13.940581038699998  68.535180947599997
307  3  -6.5852167199999991  11.405929940999997  66.804577071900013
308  3  -6.5852167199999991  11.405929940999997  84.385817612700023
309  3  -4.3901444796999991  12.673255489799997  76.883860327200011
310  3  -4.3901444796999991  12.673255489799997  64.227062398000001
311  3  -6.5852167199999991  13.940581038699998  86.963332286600007
312  3  -6.5852167199999991  13.940581038699998  74.306534357500013
313  3  -6.5852167199999991  11.405929940999997  60.476157874000009
314  3  -4.3901444796999991  12.673255489799997  70.555546366600012
315  3  -6.5852167199999991  13.940581038699998  80.634848318100012
316  1  -6.5852167199999991  11.405929940999997  102.814005568
317  1  -6.5852167199999991  11.405929940999997  108.8525469906
318  1  -4.3901444796999991  12.673255489799997  112.89329267400002
319  1  -4.3901444796999991  12.673255489799997  118.93200139130001
320  1  -6.5852167199999991  13.940581038699998  92.734551167300012
321  1  -6.5852167199999991  13.940581038699998  98.773259884600023
322  3  -6.5852167199999991  11.405929940999997  97.042656008900011
323  3  -6.5852167199999991  11.405929940999997  114.62389654970002
324  3  -4.3901444796999991  12.673255489799997  107.12193926420002
325  3  -4.3901444796999991  12.673255489799997  94.465141335000027
326  3  -6.5852167199999991  13.940581038699998  117.2014112236
327  3  -6.5852167199999991  13.940581038699998  104.54461329450002
328  3  -6.5852167199999991  11.405929940999997  90.714236810999992
329  3  -4.3901444796999991  12.673255489799997  100.79362530360002
330  3  -6.5852167199999991  13.940581038699998  110.87292725510002
331  1  -6.5852167199999991  11.405929940999997  133.05208450500001
332  1  -6.5852167199999991  11.405929940999997  139.0906259276
333  1  -4.3901444796999991  12.673255489799997  143.13137161099999
334  1  -4.3901444796999991  12.673255489799997  149.17008032830003
335  1  -6.5852167199999991  13.940581038699998  122.97263010430002
336  1  -6.5852167199999991  13.940581038699998  129.01133882159999
337  3  -6.5852167199999991  11.405929940999997  127.28073494590001
338  3  -6.5852167199999991  11.405929940999997  144.86197548670003
339  3  -4.3901444796999991  12.673255489799997  137.36001820120001
340  3  -4.3901444796999991  12.673255489799997  124.70322027200002
341  3  -6.5852167199999991  13.940581038699998  147.4394901606
342  3  -6.5852167199999991  13.940581038699998  134.78269223149999
343  3  -6.5852167199999991  11.405929940999997  120.95231574800002
344  3  -4.3901444796999991  12.673255489799997  131.03170424059999
345  3  -6.5852167199999991  13.940581038699998  141.11100619210001
346  1  -6.5852167199999991  11.405929940999997  163.29016344199999
347  1  -6.5852167199999991  11.405929940999997  169.32870486460001
348  1  -4.3901444796999991  12.673255489799997  173.369450548
349  1  -4.3901444796999991  12.673255489799997  179.40815926530004
350  1  -6.5852167199999991  13.940581038699998  153.21070904129999
351  1  -6.5852167199999991  13.940581038699998  159.2494177586
352  3  -6.5852167199999991  11.405929940999997  157.51881388289999
353  3  -6.5852167199999991  11.405929940999997  175.10005442369999
354  3  -4.3901444796999991  12.673255489799997  167.59809713819999
355  3  -4.3901444796999991  12.673255489799997  154.94129920899999
356  3  -6.5852167199999991  13.940581038699998  177.67756909760001
357  3  -6.5852167199999991  13.940581038699998  165.0207711685
358  3  -6.5852167199999991  11.405929940999997  151.19039468500003
359  3  -4.3901444796999991  12.673255489799997  161.2697831776
360  3  -6.5852167199999991  13.940581038699998  171.34908512909999
361  1  -8.7802889599999983  15.207906587999998  12.099768757
362  1  -8.7802889599999983  15.207906587999998  18.138310179600001
363  1  -6.5852167197  16.475232136799999  22.179055863000002
364  1  -6.5852167197  16.475232136799999  28.217764580299999
365  1  -8.7802889599999983  17.7425576857  2.0203143563000001
366  1  -8.7802889599999983  17.7425576857  8.0590230736000006
367  3  -8.7802889599999983  15.207906587999998  6.3284191978999997
368  3  -8.7802889599999983  15.207906587999998  23.909659738700004
369  3  -6.5852167197  16.475232136799999  16.407702453200002
370  3  -6.5852167197  16.475232136799999  3.7509045240000005
371  3  -8.7802889599999983  17.7425576857  26.487174412600002
372  3  -8.7802889599999983  17.7425576857  13.8303764835
373  3  -8.7802889599999983  15.207906587999998  0
374  3  -6.5852167197  16.475232136799999  10.079388492600001
375  3  -8.7802889599999983  17.7425576857  20.158690444100003
376  1  -8.7802889599999983  15.207906587999998  42.337847694000004
377  1  -8.7802889599999983  15.207906587999998  48.376389116600009
378  1  -6.5852167197  16.475232136799999  52.417134799999999
379  1  -6.5852167197  16.475232136799999  58.455843517299996
380  1  -8.7802889599999983  17.7425576857  32.258393293300003
381  1  -8.7802889599999983  17.7425576857  38.2971020106
382  3  -8.7802889599999983  15.207906587999998  36.566498134900009
383  3  -8.7802889599999983  15.207906587999998  54.147738675700005
384  3  -6.5852167197  16.475232136799999  46.6457813902
385  3  -6.5852167197  16.475232136799999  33.988983461000004
386  3  -8.7802889599999983  17.7425576857  56.72525334960001
387  3  -8.7802889599999983  17.7425576857  44.068455420500008
388  3  -8.7802889599999983  15.207906587999998  30.238078937000004
389  3  -6.5852167197  16.475232136799999  40.317467429600008
390  3  -8.7802889599999983  17.7425576857  50.3967693811
391  1  -8.7802889599999983  15.207906587999998  72.575926631000016
392  1  -8.7802889599999983  15.207906587999998  78.614468053600021
393  1  -6.5852167197  16.475232136799999  82.655213737000011
394  1  -6.5852167197  16.475232136799999  88.693922454300008
395  1  -8.7802889599999983  17.7425576857  62.496472230300007
396  1  -8.7802889599999983  17.7425576857  68.535180947599997
397  3  -8.7802889599999983  15.207906587999998  66.804577071900013
398  3  -8.7802889599999983  15.207906587999998  84.385817612700023
399  3  -6.5852167197  16.475232136799999  76.883860327200011
400  3  -6.5852167197  16.475232136799999  64.227062398000001
401  3  -8.7802889599999983  17.7425576857  86.963332286600007
402  3  -8.7802889599999983  17.7425576857  74.306534357500013
403  3  -8.7802889599999983  15.207906587999998  60.476157874000009
404  3  -6.5852167197  16.475232136799999  70.555546366600012
405  3  -8.7802889599999983  17.7425576857  80.634848318100012
406  1  -8.7802889599999983  15.207906587999998  102.814005568
407  1  -8.7802889599999983  15.207906587999998  108.8525469906
408  1  -6.5852167197  16.475232136799999  112.89329267400002
409  1  -6.5852167197  16.475232136799999  118.93200139130001
410  1  -8.7802889599999983  17.7425576857  92.734551167300012
411  1  -8.7802889599999983  17.7425576857  98.773259884600023
412  3  -8.7802889599999983  15.207906587999998  97.042656008900011
413  3  -8.7802889599999983  15.207906587999998  114.62389654970002
414  3  -6.5852167197  16.475232136799999  107.12193926420002
415  3  -6.5852167197  16.475232136799999  94.465141335000027
416  3  -8.7802889599999983  17.7425576857  117.2014112236
417  3  -8.7802889599999983  17.7425576857  104.54461329450002
418  3  -8.7802889599999983  15.207906587999998  90.714236810999992
419  3  -6.5852167197  16.475232136799999  100.79362530360002
420  3  -8.7802889599999983  17.7425576857  110.87292725510002
421  1  -8.7802889599999983  15.207906587999998  133.05208450500001
422  1  -8.7802889599999983  15.207906587999998  139.0906259276
423  1  -6.5852167197  16.475232136799999  143.13137161099999
424  1  -6.5852167197  16.475232136799999  149.17008032830003
425  1  -8.7802889599999983  17.7425576857  122.97263010430002
426  1  -8.7802889599999983  17.7425576857  129.01133882159999
427  3  -8.7802889599999983  15.207906587999998  127.28073494590001
428  3  -8.7802889599999983  15.207906587999998  144.86197548670003
429  3  -6.5852167197  16.475232136799999  137.36001820120001
430  3  -6.5852167197  16.475232136799999  124.70322027200002
431  3  -8.7802889599999983  17.7425576857  147.4394901606
432  3  -8.7802889599999983  17.7425576857  134.78269223149999
433  3  -8.7802889599999983  15.207906587999998  120.95231574800002
434  3  -6.5852167197  16.475232136799999  131.03170424059999
435  3  -8.7802889599999983  17.7425576857  141.11100619210001
436  1  -8.7802889599999983  15.207906587999998  163.29016344199999
437  1  -8.7802889599999983  15.207906587999998  169.32870486460001
438  1  -6.5852167197  16.475232136799999  173.369450548
439  1  -6.5852167197  16.475232136799999  179.40815926530004
440  1  -8.7802889599999983  17.7425576857  153.21070904129999
441  1  -8.7802889599999983  17.7425576857  159.2494177586
442  3  -8.7802889599999983  15.207906587999998  157.51881388289999
443  3  -8.7802889599999983  15.207906587999998  175.10005442369999
444  3  -6.5852167197  16.475232136799999  167.59809713819999
445  3  -6.5852167197  16.475232136799999  154.94129920899999
446  3  -8.7802889599999983  17.7425576857  177.67756909760001
447  3  -8.7802889599999983  17.7425576857  165.0207711685
448  3  -8.7802889599999983  15.207906587999998  151.19039468500003
449  3  -6.5852167197  16.475232136799999  161.2697831776
450  3  -8.7802889599999983  17.7425576857  171.34908512909999
451  1  -10.975361199999996  19.009883235  12.099768757
452  1  -10.975361199999996  19.009883235  18.138310179600001
453  1  -8.7802889596999965  20.277208783799995  22.179055863000002
454  1  -8.7802889596999965  20.277208783799995  28.217764580299999
455  1  -10.975361199999996  21.544534332699993  2.0203143563000001
456  1  -10.975361199999996  21.544534332699993  8.0590230736000006
457  3  -10.975361199999996  19.009883235  6.3284191978999997
458  3  -10.975361199999996  19.009883235  23.909659738700004
459  3  -8.7802889596999965  20.277208783799995  16.407702453200002
460  3  -8.7802889596999965  20.277208783799995  3.7509045240000005
461  3  -10.975361199999996  21.544534332699993  26.487174412600002
462  3  -10.975361199999996  21.544534332699993  13.8303764835
463  3  -10.975361199999996  19.009883235  0
464  3  -8.7802889596999965  20.277208783799995  10.079388492600001
465  3  -10.975361199999996  21.544534332699993  20.158690444100003
466  1  -10.975361199999996  19.009883235  42.337847694000004
467  1  -10.975361199999996  19.009883235  48.376389116600009
468  1  -8.7802889596999965  20.277208783799995  52.417134799999999
469  1  -8.7802889596999965  20.277208783799995  58.455843517299996
470  1  -10.975361199999996  21.544534332699993  32.258393293300003
471  1  -10.975361199999996  21.544534332699993  38.2971020106
472  3  -10.975361199999996  19.009883235  36.566498134900009
473  3  -10.975361199999996  19.009883235  54.147738675700005
474  3  -8.7802889596999965  20.277208783799995  46.6457813902
475  3  -8.7802889596999965  20.277208783799995  33.988983461000004
476  3  -10.975361199999996  21.544534332699993  56.72525334960001
477  3  -10.975361199999996  21.544534332699993  44.068455420500008
478  3  -10.975361199999996  19.009883235  30.238078937000004
479  3  -8.7802889596999965  20.277208783799995  40.317467429600008
480  3  -10.975361199999996  21.544534332699993  50.3967693811
481  1  -10.975361199999996  19.009883235  72.575926631000016
482  1  -10.975361199999996  19.009883235  78.614468053600021
483  1  -8.7802889596999965  20.277208783799995  82.655213737000011
484  1  -8.7802889596999965  20.277208783799995  88.693922454300008
485  1  -10.975361199999996  21.544534332699993  62.496472230300007
486  1  -10.975361199999996  21.544534332699993  68.535180947599997
487  3  -10.975361199999996  19.009883235  66.804577071900013
488  3  -10.975361199999996  19.009883235  84.385817612700023
489  3  -8.7802889596999965  20.277208783799995  76.883860327200011
490  3  -8.7802889596999965  20.277208783799995  64.227062398000001
491  3  -10.975361199999996  21.544534332699993  86.963332286600007
492  3  -10.975361199999996  21.544534332699993  74.306534357500013
493  3  -10.975361199999996  19.009883235  60.476157874000009
494  3  -8.7802889596999965  20.277208783799995  70.555546366600012
495  3  -10.975361199999996  21.544534332699993  80.634848318100012
496  1  -10.975361199999996  19.009883235  102.814005568
497  1  -10.975361199999996  19.009883235  108.8525469906
498  1  -8.7802889596999965  20.277208783799995  112.89329267400002
499  1  -8.7802889596999965  20.277208783799995  118.93200139130001
500  1  -10.975361199999996  21.544534332699993  92.734551167300012
501  1  -10.975361199999996  21.544534332699993  98.773259884600023
502  3  -10.975361199999996  19.009883235  97.042656008900011
503  3  -10.975361199999996  19.009883235  114.62389654970002
504  3  -8.7802889596999965  20.277208783799995  107.12193926420002
505  3  -8.7802889596999965  20.277208783799995  94.465141335000027
506  3  -10.975361199999996  21.544534332699993  117.2014112236
507  3  -10.975361199999996  21.544534332699993  104.54461329450002
508  3  -10.975361199999996  19.009883235  90.714236810999992
509  3  -8.7802889596999965  20.277208783799995  100.79362530360002
510  3  -10.975361199999996  21.544534332699993  110.87292725510002
511  1  -10.975361199999996  19.009883235  133.05208450500001
512  1  -10.975361199999996  19.009883235  139.0906259276
513  1  -8.7802889596999965  20.277208783799995  143.13137161099999
514  1  -8.7802889596999965  20.277208783799995  149.17008032830003
515  1  -10.975361199999996  21.544534332699993  122.97263010430002
516  1  -10.975361199999996  21.544534332699993  129.01133882159999
517  3  -10.975361199999996  19.009883235  127.28073494590001
518  3  -10.975361199999996  19.009883235  144.86197548670003
519  3  -8.7802889596999965  20.277208783799995  137.36001820120001
520  3  -8.7802889596999965  20.277208783799995  124.70322027200002
521  3  -10.975361199999996  21.544534332699993  147.4394901606
522  3  -10.975361199999996  21.544534332699993  134.78269223149999
523  3  -10.975361199999996  19.009883235  120.95231574800002
524  3  -8.7802889596999965  20.277208783799995  131.03170424059999
525  3  -10.975361199999996  21.544534332699993  141.11100619210001
526  1  -10.975361199999996  19.009883235  163.29016344199999
527  1  -10.975361199999996  19.009883235  169.32870486460001
528  1  -8.7802889596999965  20.277208783799995  173.369450548
529  1  -8.7802889596999965  20.277208783799995  179.40815926530004
530  1  -10.975361199999996  21.544534332699993  153.21070904129999
531  1  -10.975361199999996  21.544534332699993  159.2494177586
532  3  -10.975361199999996  19.009883235  157.51881388289999
533  3  -10.975361199999996  19.009883235  175.10005442369999
534  3  -8.7802889596999965  20.277208783799995  167.59809713819999
535  3  -8.7802889596999965  20.277208783799995  154.94129920899999
536  3  -10.975361199999996  21.544534332699993  177.67756909760001
537  3  -10.975361199999996  21.544534332699993  165.0207711685
538  3  -10.975361199999996  19.009883235  151.19039468500003
539  3  -8.7802889596999965  20.277208783799995  161.2697831776
540  3  -10.975361199999996  21.544534332699993  171.34908512909999
541  1  4.3901444809999992  -1.5125956848294233e-16  12.099768757
542  1  4.3901444809999992  -1.5125956848294233e-16  18.138310179600001
543  1  6.5852167212999984  1.2673255487999993  22.179055863000002
544  1  6.5852167212999984  1.2673255487999993  28.217764580299999
545  1  4.3901444809999992  2.5346510976999994  2.0203143563000001
546  1  4.3901444809999992  2.5346510976999994  8.0590230736000006
547  3  4.3901444809999992  -1.5125956848294233e-16  6.3284191978999997
548  3  4.3901444809999992  -1.5125956848294233e-16  23.909659738700004
549  3  6.5852167212999984  1.2673255487999993  16.407702453200002
550  3  6.5852167212999984  1.2673255487999993  3.7509045240000005
551  3  4.3901444809999992  2.5346510976999994  26.487174412600002
552  3  4.3901444809999992  2.5346510976999994  13.8303764835
553  3  4.3901444809999992  -1.5125956848294233e-16  0
554  3  6.5852167212999984  1.2673255487999993  10.079388492600001
555  3  4.3901444809999992  2.5346510976999994  20.158690444100003
556  1  4.3901444809999992  -1.5125956848294233e-16  42.337847694000004
557  1  4.3901444809999992  -1.5125956848294233e-16  48.376389116600009
558  1  6.5852167212999984  1.2673255487999993  52.417134799999999
559  1  6.5852167212999984  1.2673255487999993  58.455843517299996
560  1  4.3901444809999992  2.5346510976999994  32.258393293300003
561  1  4.3901444809999992  2.5346510976999994  38.2971020106
562  3  4.3901444809999992  -1.5125956848294233e-16  36.566498134900009
563  3  4.3901444809999992  -1.5125956848294233e-16  54.147738675700005
564  3  6.5852167212999984  1.2673255487999993  46.6457813902
565  3  6.5852167212999984  1.2673255487999993  33.988983461000004
566  3  4.3901444809999992  2.5346510976999994  56.72525334960001
567  3  4.3901444809999992  2.5346510976999994  44.068455420500008
568  3  4.3901444809999992  -1.5125956848294233e-16  30.238078937000004
569  3  6.5852167212999984  1.2673255487999993  40.317467429600008
570  3  4.3901444809999992  2.5346510976999994  50.3967693811
571  1  4.3901444809999992  -1.5125956848294233e-16  72.575926631000016
572  1  4.3901444809999992  -1.5125956848294233e-16  78.614468053600021
573  1  6.5852167212999984  1.2673255487999993  82.655213737000011
574  1  6.5852167212999984  1.2673255487999993  88.693922454300008
575  1  4.3901444809999992  2.5346510976999994  62.496472230300007
576  1  4.3901444809999992  2.5346510976999994  68.535180947599997
577  3  4.3901444809999992  -1.5125956848294233e-16  66.804577071900013
578  3  4.3901444809999992  -1.5125956848294233e-16  84.385817612700023
579  3  6.5852167212999984  1.2673255487999993  76.883860327200011
580  3  6.5852167212999984  1.2673255487999993  64.227062398000001
581  3  4.3901444809999992  2.5346510976999994  86.963332286600007
582  3  4.3901444809999992  2.5346510976999994  74.306534357500013
583  3  4.3901444809999992  -1.5125956848294233e-16  60.476157874000009
584  3  6.5852167212999984  1.2673255487999993  70.555546366600012
585  3  4.3901444809999992  2.5346510976999994  80.634848318100012
586  1  4.3901444809999992  -1.5125956848294233e-16  102.814005568
587  1  4.3901444809999992  -1.5125956848294233e-16  108.8525469906
588  1  6.5852167212999984  1.2673255487999993  112.89329267400002
589  1  6.5852167212999984  1.2673255487999993  118.93200139130001
590  1  4.3901444809999992  2.5346510976999994  92.734551167300012
591  1  4.3901444809999992  2.5346510976999994  98.773259884600023
592  3  4.3901444809999992  -1.5125956848294233e-16  97.042656008900011
593  3  4.3901444809999992  -1.5125956848294233e-16  114.62389654970002
594  3  6.5852167212999984  1.2673255487999993  107.12193926420002
595  3  6.5852167212999984  1.2673255487999993  94.465141335000027
596  3  4.3901444809999992  2.5346510976999994  117.2014112236
597  3  4.3901444809999992  2.5346510976999994  104.54461329450002
598  3  4.3901444809999992  -1.5125956848294233e-16  90.714236810999992
599  3  6.5852167212999984  1.2673255487999993  100.79362530360002
600  3  4.3901444809999992  2.5346510976999994  110.87292725510002
601  1  4.3901444809999992  -1.5125956848294233e-16  133.05208450500001
602  1  4.3901444809999992  -1.5125956848294233e-16  139.0906259276
603  1  6.5852167212999984  1.2673255487999993  143.13137161099999
604  1  6.5852167212999984  1.2673255487999993  149.17008032830003
605  1  4.3901444809999992  2.5346510976999994  122.97263010430002
606  1  4.3901444809999992  2.5346510976999994  129.01133882159999
607  3  4.3901444809999992  -1.5125956848294233e-16  127.28073494590001
608  3  4.3901444809999992  -1.5125956848294233e-16  144.86197548670003
609  3  6.5852167212999984  1.2673255487999993  137.36001820120001
610  3  6.5852167212999984  1.2673255487999993  124.70322027200002
611  3  4.3901444809999992  2.5346510976999994  147.4394901606
612  3  4.3901444809999992  2.5346510976999994  134.78269223149999
613  3  4.3901444809999992  -1.5125956848294233e-16  120.95231574800002
614  3  6.5852167212999984  1.2673255487999993  131.03170424059999
615  3  4.3901444809999992  2.5346510976999994  141.11100619210001
616  1  4.3901444809999992  -1.5125956848294233e-16  163.29016344199999
617  1  4.3901444809999992  -1.5125956848294233e-16  169.32870486460001
618  1  6.5852167212999984  1.2673255487999993  173.369450548
619  1  6.5852167212999984  1.2673255487999993  179.40815926530004
620  1  4.3901444809999992  2.5346510976999994  153.21070904129999
621  1  4.3901444809999992  2.5346510976999994  159.2494177586
622  3  4.3901444809999992  -1.5125956848294233e-16  157.51881388289999
623  3  4.3901444809999992  -1.5125956848294233e-16  175.10005442369999
624  3  6.5852167212999984  1.2673255487999993  167.59809713819999
625  3  6.5852167212999984  1.2673255487999993  154.94129920899999
626  3  4.3901444809999992  2.5346510976999994  177.67756909760001
627  3  4.3901444809999992  2.5346510976999994  165.0207711685
628  3  4.3901444809999992  -1.5125956848294233e-16  151.19039468500003
629  3  6.5852167212999984  1.2673255487999993  161.2697831776
630  3  4.3901444809999992  2.5346510976999994  171.34908512909999
631  1  2.1950722409999996  3.8019766469999996  12.099768757
632  1  2.1950722409999996  3.8019766469999996  18.138310179600001
633  1  4.3901444812999983  5.0693021957999989  22.179055863000002
634  1  4.3901444812999983  5.0693021957999989  28.217764580299999
635  1  2.1950722409999996  6.3366277446999986  2.0203143563000001
636  1  2.1950722409999996  6.3366277446999986  8.0590230736000006
637  3  2.1950722409999996  3.8019766469999996  6.3284191978999997
638  3  2.1950722409999996  3.8019766469999996  23.909659738700004
639  3  4.3901444812999983  5.0693021957999989  16.407702453200002
640  3  4.3901444812999983  5.0693021957999989  3.7509045240000005
641  3  2.1950722409999996  6.3366277446999986  26.487174412600002
642  3  2.1950722409999996  6.3366277446999986  13.8303764835
643  3  2.1950722409999996  3.8019766469999996  0
644  3  4.3901444812999983  5.0693021957999989  10.079388492600001
645  3  2.1950722409999996  6.3366277446999986  20.158690444100003
646  1  2.1950722409999996  3.8019766469999996  42.337847694000004
647  1  2.1950722409999996  3.8019766469999996  48.376389116600009
648  1  4.3901444812999983  5.0693021957999989  52.417134799999999
649  1  4.3901444812999983  5.0693021957999989  58.455843517299996
650  1  2.1950722409999996  6.3366277446999986  32.258393293300003
651  1  2.1950722409999996  6.3366277446999986  38.2971020106
652  3  2.1950722409999996  3.8019766469999996  36.566498134900009
653  3  2.1950722409999996  3.8019766469999996  54.147738675700005
654  3  4.3901444812999983  5.0693021957999989  46.6457813902
655  3  4.3901444812999983  5.0693021957999989  33.988983461000004
656  3  2.1950722409999996  6.3366277446999986  56.72525334960001
657  3  2.1950722409999996  6.3366277446999986  44.068455420500008
658  3  2.1950722409999996  3.8019766469999996  30.238078937000004
659  3  4.3901444812999983  5.0693021957999989  40.317467429600008
660  3  2.1950722409999996  6.3366277446999986  50.3967693811
661  1  2.1950722409999996  3.8019766469999996  72.575926631000016
662  1  2.1950722409999996  3.8019766469999996  78.614468053600021
663  1  4.3901444812999983  5.0693021957999989  82.655213737000011
664  1  4.3901444812999983  5.0693021957999989  88.693922454300008
665  1  2.1950722409999996  6.3366277446999986  62.496472230300007
666  1  2.1950722409999996  6.3366277446999986  68.535180947599997
667  3  2.1950722409999996  3.8019766469999996  66.804577071900013
668  3  2.1950722409999996  3.8019766469999996  84.385817612700023
669  3  4.3901444812999983  5.0693021957999989  76.883860327200011
670  3  4.3901444812999983  5.0693021957999989  64.227062398000001
671  3  2.1950722409999996  6.3366277446999986  86.963332286600007
672  3  2.1950722409999996  6.3366277446999986  74.306534357500013
673  3  2.1950722409999996  3.8019766469999996  60.476157874000009
674  3  4.3901444812999983  5.0693021957999989  70.555546366600012
675  3  2.1950722409999996  6.3366277446999986  80.634848318100012
676  1  2.1950722409999996  3.8019766469999996  102.814005568
677  1  2.1950722409999996  3.8019766469999996  108.8525469906
678  1  4.3901444812999983  5.0693021957999989  112.89329267400002
679  1  4.3901444812999983  5.0693021957999989  118.93200139130001
680  1  2.1950722409999996  6.3366277446999986  92.734551167300012
681  1  2.1950722409999996  6.3366277446999986  98.773259884600023
682  3  2.1950722409999996  3.8019766469999996  97.042656008900011
683  3  2.1950722409999996  3.8019766469999996  114.62389654970002
684  3  4.3901444812999983  5.0693021957999989  107.12193926420002
685  3  4.3901444812999983  5.0693021957999989  94.465141335000027
686  3  2.1950722409999996  6.3366277446999986  117.2014112236
687  3  2.1950722409999996  6.3366277446999986  104.54461329450002
688  3  2.1950722409999996  3.8019766469999996  90.714236810999992
689  3  4.3901444812999983  5.0693021957999989  100.79362530360002
690  3  2.1950722409999996  6.3366277446999986  110.87292725510002
691  1  2.1950722409999996  3.8019766469999996  133.05208450500001
692  1  2.1950722409999996  3.8019766469999996  139.0906259276
693  1  4.3901444812999983  5.0693021957999989  143.13137161099999
694  1  4.3901444812999983  5.0693021957999989  149.17008032830003
695  1  2.1950722409999996  6.3366277446999986  122.97263010430002
696  1  2.1950722409999996  6.3366277446999986  129.01133882159999
697  3  2.1950722409999996  3.8019766469999996  127.28073494590001
698  3  2.1950722409999996  3.8019766469999996  144.86197548670003
699  3  4.3901444812999983  5.0693021957999989  137.36001820120001
700  3  4.3901444812999983  5.0693021957999989  124.70322027200002
701  3  2.1950722409999996  6.3366277446999986  147.4394901606
702  3  2.1950722409999996  6.3366277446999986  134.78269223149999
703  3  2.1950722409999996  3.8019766469999996  120.95231574800002
704  3  4.3901444812999983  5.0693021957999989  131.03170424059999
705  3  2.1950722409999996  6.3366277446999986  141.11100619210001
706  1  2.1950722409999996  3.8019766469999996  163.29016344199999
707  1  2.1950722409999996  3.8019766469999996  169.32870486460001
708  1  4.3901444812999983  5.0693021957999989  173.369450548
709  1  4.3901444812999983  5.0693021957999989  179.40815926530004
710  1  2.1950722409999996  6.3366277446999986  153.21070904129999
711  1  2.1950722409999996  6.3366277446999986  159.2494177586
712  3  2.1950722409999996  3.8019766469999996  157.51881388289999
713  3  2.1950722409999996  3.8019766469999996  175.10005442369999
714  3  4.3901444812999983  5.0693021957999989  167.59809713819999
715  3  4.3901444812999983  5.0693021957999989  154.94129920899999
716  3  2.1950722409999996  6.3366277446999986  177.67756909760001
717  3  2.1950722409999996  6.3366277446999986  165.0207711685
718  3  2.1950722409999996  3.8019766469999996  151.19039468500003
719  3  4.3901444812999983  5.0693021957999989  161.2697831776
720  3  2.1950722409999996  6.3366277446999986  171.34908512909999
721  1  1.0000003264423449e-09  7.6039532939999992  12.099768757
722  1  1.0000003264423449e-09  7.6039532939999992  18.138310179600001
723  1  2.1950722413000001  8.8712788427999989  22.179055863000002
724  1  2.1950722413000001  8.8712788427999989  28.217764580299999
725  1  1.000000530679997e-09  10.138604391699998  2.0203143563000001
726  1  1.000000530679997e-09  10.138604391699998  8.0590230736000006
727  3  1.0000003264423449e-09  7.6039532939999992  6.3284191978999997
728  3  1.0000003264423449e-09  7.6039532939999992  23.909659738700004
729  3  2.1950722413000001  8.8712788427999989  16.407702453200002
730  3  2.1950722413000001  8.8712788427999989  3.7509045240000005
731  3  1.000000530679997e-09  10.138604391699998  26.487174412600002
732  3  1.000000530679997e-09  10.138604391699998  13.8303764835
733  3  1.0000003264423449e-09  7.6039532939999992  0
734  3  2.1950722413000001  8.8712788427999989  10.079388492600001
735  3  1.000000530679997e-09  10.138604391699998  20.158690444100003
736  1  1.0000003264423449e-09  7.6039532939999992  42.337847694000004
737  1  1.0000003264423449e-09  7.6039532939999992  48.376389116600009
738  1  2.1950722413000001  8.8712788427999989  52.417134799999999
739  1  2.1950722413000001  8.8712788427999989  58.455843517299996
740  1  1.000000530679997e-09  10.138604391699998  32.258393293300003
741  1  1.000000530679997e-09  10.138604391699998  38.2971020106
742  3  1.0000003264423449e-09  7.6039532939999992  36.566498134900009
743  3  1.0000003264423449e-09  7.6039532939999992  54.147738675700005
744  3  2.1950722413000001  8.8712788427999989  46.6457813902
745  3  2.1950722413000001  8.8712788427999989  33.988983461000004
746  3  1.000000530679997e-09  10.138604391699998  56.72525334960001
747  3  1.000000530679997e-09  10.138604391699998  44.068455420500008
748  3  1.0000003264423449e-09  7.6039532939999992  30.238078937000004
749  3  2.1950722413000001  8.8712788427999989  40.317467429600008
750  3  1.000000530679997e-09  10.138604391699998  50.3967693811
751  1  1.0000003264423449e-09  7.6039532939999992  72.575926631000016
752  1  1.0000003264423449e-09  7.6039532939999992  78.614468053600021
753  1  2.1950722413000001  8.8712788427999989  82.655213737000011
754  1  2.1950722413000001  8.8712788427999989  88.693922454300008
755  1  1.000000530679997e-09  10.138604391699998  62.496472230300007
756  1  1.000000530679997e-09  10.138604391699998  68.535180947599997
757  3  1.0000003264423449e-09  7.6039532939999992  66.804577071900013
758  3  1.0000003264423449e-09  7.6039532939999992  84.385817612700023
759  3  2.1950722413000001  8.8712788427999989  76.883860327200011
760  3  2.1950722413000001  8.8712788427999989  64.227062398000001
761  3  1.000000530679997e-09  10.138604391699998  86.963332286600007
762  3  1.000000530679997e-09  10.138604391699998  74.306534357500013
763  3  1.0000003264423449e-09  7.6039532939999992  60.476157874000009
764  3  2.1950722413000001  8.8712788427999989  70.555546366600012
765  3  1.000000530679997e-09  10.138604391699998  80.634848318100012
766  1  1.0000003264423449e-09  7.6039532939999992  102.814005568
767  1  1.0000003264423449e-09  7.6039532939999992  108.8525469906
768  1  2.1950722413000001  8.8712788427999989  112.89329267400002
769  1  2.1950722413000001  8.8712788427999989  118.93200139130001
770  1  1.000000530679997e-09  10.138604391699998  92.734551167300012
771  1  1.000000530679997e-09  10.138604391699998  98.773259884600023
772  3  1.0000003264423449e-09  7.6039532939999992  97.042656008900011
773  3  1.0000003264423449e-09  7.6039532939999992  114.62389654970002
774  3  2.1950722413000001  8.8712788427999989  107.12193926420002
775  3  2.1950722413000001  8.8712788427999989  94.465141335000027
776  3  1.000000530679997e-09  10.138604391699998  117.2014112236
777  3  1.000000530679997e-09  10.138604391699998  104.54461329450002
778  3  1.0000003264423449e-09  7.6039532939999992  90.714236810999992
779  3  2.1950722413000001  8.8712788427999989  100.79362530360002
780  3  1.000000530679997e-09  10.138604391699998  110.87292725510002
781  1  1.0000003264423449e-09  7.6039532939999992  133.05208450500001
782  1  1.0000003264423449e-09  7.6039532939999992  139.0906259276
783  1  2.1950722413000001  8.8712788427999989  143.13137161099999
784  1  2.1950722413000001  8.8712788427999989  149.17008032830003
785  1  1.000000530679997e-09  10.138604391699998  122.97263010430002
786  1  1.000000530679997e-09  10.138604391699998  129.01133882159999
787  3  1.0000003264423449e-09  7.6039532939999992  127.28073494590001
788  3  1.0000003264423449e-09  7.6039532939999992  144.86197548670003
789  3  2.1950722413000001  8.8712788427999989  137.36001820120001
790  3  2.1950722413000001  8.8712788427999989  124.70322027200002
791  3  1.000000530679997e-09  10.138604391699998  147.4394901606
792  3  1.000000530679997e-09  10.138604391699998  134.78269223149999
793  3  1.0000003264423449e-09  7.6039532939999992  120.95231574800002
794  3  2.1950722413000001  8.8712788427999989  131.03170424059999
795  3  1.000000530679997e-09  10.138604391699998  141.11100619210001
796  1  1.0000003264423449e-09  7.6039532939999992  163.29016344199999
797  1  1.0000003264423449e-09  7.6039532939999992  169.32870486460001
798  1  2.1950722413000001  8.8712788427999989  173.369450548
799  1  2.1950722413000001  8.8712788427999989  179.40815926530004
800  1  1.000000530679997e-09  10.138604391699998  153.21070904129999
801  1  1.000000530679997e-09  10.138604391699998  159.2494177586
802  3  1.0000003264423449e-09  7.6039532939999992  157.51881388289999
803  3  1.0000003264423449e-09  7.6039532939999992  175.10005442369999
804  3  2.1950722413000001  8.8712788427999989  167.59809713819999
805  3  2.1950722413000001  8.8712788427999989  154.94129920899999
806  3  1.000000530679997e-09  10.138604391699998  177.67756909760001
807  3  1.000000530679997e-09  10.138604391699998  165.0207711685
808  3  1.0000003264423449e-09  7.6039532939999992  151.19039468500003
809  3  2.1950722413000001  8.8712788427999989  161.2697831776
810  3  1.000000530679997e-09  10.138604391699998  171.34908512909999
811  1  -2.1950722389999995  11.405929940999997  12.099768757
812  1  -2.1950722389999995  11.405929940999997  18.138310179600001
813  1  1.2999994638544856e-09  12.673255489799997  22.179055863000002
814  1  1.2999994638544856e-09  12.673255489799997  28.217764580299999
815  1  -2.1950722389999995  13.940581038699998  2.0203143563000001
816  1  -2.1950722389999995  13.940581038699998  8.0590230736000006
817  3  -2.1950722389999995  11.405929940999997  6.3284191978999997
818  3  -2.1950722389999995  11.405929940999997  23.909659738700004
819  3  1.2999994638544856e-09  12.673255489799997  16.407702453200002
820  3  1.2999994638544856e-09  12.673255489799997  3.7509045240000005
821  3  -2.1950722389999995  13.940581038699998  26.487174412600002
822  3  -2.1950722389999995  13.940581038699998  13.8303764835
823  3  -2.1950722389999995  11.405929940999997  0
824  3  1.2999994638544856e-09  12.673255489799997  10.079388492600001
825  3  -2.1950722389999995  13.940581038699998  20.158690444100003
826  1  -2.1950722389999995  11.405929940999997  42.337847694000004
827  1  -2.1950722389999995  11.405929940999997  48.376389116600009
828  1  1.2999994638544856e-09  12.673255489799997  52.417134799999999
829  1  1.2999994638544856e-09  12.673255489799997  58.455843517299996
830  1  -2.1950722389999995  13.940581038699998  32.258393293300003
831  1  -2.1950722389999995  13.940581038699998  38.2971020106
832  3  -2.1950722389999995  11.405929940999997  36.566498134900009
833  3  -2.1950722389999995  11.405929940999997  54.147738675700005
834  3  1.2999994638544856e-09  12.673255489799997  46.6457813902
835  3  1.2999994638544856e-09  12.673255489799997  33.988983461000004
836  3  -2.1950722389999995  13.940581038699998  56.72525334960001
837  3  -2.1950722389999995  13.940581038699998  44.068455420500008
838  3  -2.1950722389999995  11.405929940999997  30.238078937000004
839  3  1.2999994638544856e-09  12.673255489799997  40.317467429600008
840  3  -2.1950722389999995  13.940581038699998  50.3967693811
841  1  -2.1950722389999995  11.405929940999997  72.575926631000016
842  1  -2.1950722389999995  11.405929940999997  78.614468053600021
843  1  1.2999994638544856e-09  12.673255489799997  82.655213737000011
844  1  1.2999994638544856e-09  12.673255489799997  88.693922454300008
845  1  -2.1950722389999995  13.940581038699998  62.496472230300007
846  1  -2.1950722389999995  13.940581038699998  68.535180947599997
847  3  -2.1950722389999995  11.405929940999997  66.804577071900013
848  3  -2.1950722389999995  11.405929940999997  84.385817612700023
849  3  1.2999994638544856e-09  12.673255489799997  76.883860327200011
850  3  1.2999994638544856e-09  12.673255489799997  64.227062398000001
851  3  -2.1950722389999995  13.940581038699998  86.963332286600007
852  3  -2.1950722389999995  13.940581038699998  74.306534357500013
853  3  -2.1950722389999995  11.405929940999997  60.476157874000009
854  3  1.2999994638544856e-09  12.673255489799997  70.555546366600012
855  3  -2.1950722389999995  13.940581038699998  80.634848318100012
856  1  -2.1950722389999995  11.405929940999997  102.814005568
857  1  -2.1950722389999995  11.405929940999997  108.8525469906
858  1  1.2999994638544856e-09  12.673255489799997  112.89329267400002
859  1  1.2999994638544856e-09  12.673255489799997  118.93200139130001
860  1  -2.1950722389999995  13.940581038699998  92.734551167300012
861  1  -2.1950722389999995  13.940581038699998  98.773259884600023
862  3  -2.1950722389999995  11.405929940999997  97.042656008900011
863  3  -2.1950722389999995  11.405929940999997  114.62389654970002
864  3  1.2999994638544856e-09  12.673255489799997  107.12193926420002
865  3  1.2999994638544856e-09  12.673255489799997  94.465141335000027
866  3  -2.1950722389999995  13.940581038699998  117.2014112236
867  3  -2.1950722389999995  13.940581038699998  104.54461329450002
868  3  -2.1950722389999995  11.405929940999997  90.714236810999992
869  3  1.2999994638544856e-09  12.673255489799997  100.79362530360002
870  3  -2.1950722389999995  13.940581038699998  110.87292725510002
871  1  -2.1950722389999995  11.405929940999997  133.05208450500001
872  1  -2.1950722389999995  11.405929940999997  139.0906259276
873  1  1.2999994638544856e-09  12.673255489799997  143.13137161099999
874  1  1.2999994638544856e-09  12.673255489799997  149.17008032830003
875  1  -2.1950722389999995  13.940581038699998  122.97263010430002
876  1  -2.1950722389999995  13.940581038699998  129.01133882159999
877  3  -2.1950722389999995  11.405929940999997  127.28073494590001
878  3  -2.1950722389999995  11.405929940999997  144.86197548670003
879  3  1.2999994638544856e-09  12.673255489799997  137.36001820120001
880  3  1.2999994638544856e-09  12.673255489799997  124.70322027200002
881  3  -2.1950722389999995  13.940581038699998  147.4394901606
882  3  -2.1950722389999995  13.940581038699998  134.78269223149999
883  3  -2.1950722389999995  11.405929940999997  120.95231574800002
884  3  1.2999994638544856e-09  12.673255489799997  131.03170424059999
885  3  -2.1950722389999995  13.940581038699998  141.11100619210001
886  1  -2.1950722389999995  11.405929940999997  163.29016344199999
887  1  -2.1950722389999995  11.405929940999997  169.32870486460001
888  1  1.2999994638544856e-09  12.673255489799997  173.369450548
889  1  1.2999994638544856e-09  12.673255489799997  179.40815926530004
890  1  -2.1950722389999995  13.940581038699998  153.21070904129999
891  1  -2.1950722389999995  13.940581038699998  159.2494177586
892  3  -2.1950722389999995  11.405929940999997  157.51881388289999
893  3  -2.1950722389999995  11.405929940999997  175.10005442369999
894  3  1.2999994638544856e-09  12.673255489799997  167.59809713819999
895  3  1.2999994638544856e-09  12.673255489799997  154.94129920899999
896  3  -2.1950722389999995  13.940581038699998  177.67756909760001
897  3  -2.1950722389999995  13.940581038699998  165.0207711685
898  3  -2.1950722389999995  11.405929940999997  151.19039468500003
899  3  1.2999994638544856e-09  12.673255489799997  161.2697831776
900  3  -2.1950722389999995  13.940581038699998  171.34908512909999
901  1  -4.3901444789999982  15.207906587999998  12.099768757
902  1  -4.3901444789999982  15.207906587999998  18.138310179600001
903  1  -2.1950722386999995  16.475232136799999  22.179055863000002
904  1  -2.1950722386999995  16.475232136799999  28.217764580299999
905  1  -4.3901444789999982  17.742557685699996  2.0203143563000001
906  1  -4.3901444789999982  17.742557685699996  8.0590230736000006
907  3  -4.3901444789999982  15.207906587999998  6.3284191978999997
908  3  -4.3901444789999982  15.207906587999998  23.909659738700004
909  3  -2.1950722386999995  16.475232136799999  16.407702453200002
910  3  -2.1950722386999995  16.475232136799999  3.7509045240000005
911  3  -4.3901444789999982  17.742557685699996  26.487174412600002
912  3  -4.3901444789999982  17.742557685699996  13.8303764835
913  3  -4.3901444789999982  15.207906587999998  0
914  3  -2.1950722386999995  16.475232136799999  10.079388492600001
915  3  -4.3901444789999982  17.742557685699996  20.158690444100003
916  1  -4.3901444789999982  15.207906587999998  42.337847694000004
917  1  -4.3901444789999982  15.207906587999998  48.376389116600009
918  1  -2.1950722386999995  16.475232136799999  52.417134799999999
919  1  -2.1950722386999995  16.475232136799999  58.455843517299996
920  1  -4.3901444789999982  17.742557685699996  32.258393293300003
921  1  -4.3901444789999982  17.742557685699996  38.2971020106
922  3  -4.3901444789999982  15.207906587999998  36.566498134900009
923  3  -4.3901444789999982  15.207906587999998  54.147738675700005
924  3  -2.1950722386999995  16.475232136799999  46.6457813902
925  3  -2.1950722386999995  16.475232136799999  33.988983461000004
926  3  -4.3901444789999982  17.742557685699996  56.72525334960001
927  3  -4.3901444789999982  17.742557685699996  44.068455420500008
928  3  -4.3901444789999982  15.207906587999998  30.238078937000004
929  3  -2.1950722386999995  16.475232136799999  40.317467429600008
930  3  -4.3901444789999982  17.742557685699996  50.3967693811
931  1  -4.3901444789999982  15.207906587999998  72.575926631000016
932  1  -4.3901444789999982  15.207906587999998  78.614468053600021
933  1  -2.1950722386999995  16.475232136799999  82.655213737000011
934  1  -2.1950722386999995  16.475232136799999  88.693922454300008
935  1  -4.3901444789999982  17.742557685699996  62.496472230300007
936  1  -4.3901444789999982  17.742557685699996  68.535180947599997
937  3  -4.3901444789999982  15.207906587999998  66.804577071900013
938  3  -4.3901444789999982  15.207906587999998  84.385817612700023
939  3  -2.1950722386999995  16.475232136799999  76.883860327200011
940  3  -2.1950722386999995  16.475232136799999  64.227062398000001
941  3  -4.3901444789999982  17.742557685699996  86.963332286600007
942  3  -4.3901444789999982  17.742557685699996  74.306534357500013
943  3  -4.3901444789999982  15.207906587999998  60.476157874000009
944  3  -2.1950722386999995  16.475232136799999  70.555546366600012
945  3  -4.3901444789999982  17.742557685699996  80.634848318100012
946  1  -4.3901444789999982  15.207906587999998  102.814005568
947  1  -4.3901444789999982  15.207906587999998  108.8525469906
948  1  -2.1950722386999995  16.475232136799999  112.89329267400002
949  1  -2.1950722386999995  16.475232136799999  118.93200139130001
950  1  -4.3901444789999982  17.742557685699996  92.734551167300012
951  1  -4.3901444789999982  17.742557685699996  98.773259884600023
952  3  -4.3901444789999982  15.207906587999998  97.042656008900011
953  3  -4.3901444789999982  15.207906587999998  114.62389654970002
954  3  -2.1950722386999995  16.475232136799999  107.12193926420002
955  3  -2.1950722386999995  16.475232136799999  94.465141335000027
956  3  -4.3901444789999982  17.742557685699996  117.2014112236
957  3  -4.3901444789999982  17.742557685699996  104.54461329450002
958  3  -4.3901444789999982  15.207906587999998  90.714236810999992
959  3  -2.1950722386999995  16.475232136799999  100.79362530360002
960  3  -4.3901444789999982  17.742557685699996  110.87292725510002
961  1  -4.3901444789999982  15.207906587999998  133.05208450500001
962  1  -4.3901444789999982  15.207906587999998  139.0906259276
963  1  -2.1950722386999995  16.475232136799999  143.13137161099999
964  1  -2.1950722386999995  16.475232136799999  149.17008032830003
965  1  -4.3901444789999982  17.742557685699996  122.97263010430002
966  1  -4.3901444789999982  17.742557685699996  129.01133882159999
967  3  -4.3901444789999982  15.207906587999998  127.28073494590001
968  3  -4.3901444789999982  15.207906587999998  144.86197548670003
969  3  -2.1950722386999995  16.475232136799999  137.36001820120001
970  3  -2.1950722386999995  16.475232136799999  124.70322027200002
971  3  -4.3901444789999982  17.742557685699996  147.4394901606
972  3  -4.3901444789999982  17.742557685699996  134.78269223149999
973  3  -4.3901444789999982  15.207906587999998  120.95231574800002
974  3  -2.1950722386999995  16.475232136799999  131.03170424059999
975  3  -4.3901444789999982  17.742557685699996  141.11100619210001
976  1  -4.3901444789999982  15.207906587999998  163.29016344199999
977  1  -4.3901444789999982  15.207906587999998  169.32870486460001
978  1  -2.1950722386999995  16.475232136799999  173.369450548
979  1  -2.1950722386999995  16.475232136799999  179.40815926530004
980  1  -4.3901444789999982  17.742557685699996  153.21070904129999
981  1  -4.3901444789999982  17.742557685699996  159.2494177586
982  3  -4.3901444789999982  15.207906587999998  157.51881388289999
983  3  -4.3901444789999982  15.207906587999998  175.10005442369999
984  3  -2.1950722386999995  16.475232136799999  167.59809713819999
985  3  -2.1950722386999995  16.475232136799999  154.94129920899999
986  3  -4.3901444789999982  17.742557685699996  177.67756909760001
987  3  -4.3901444789999982  17.742557685699996  165.0207711685
988  3  -4.3901444789999982  15.207906587999998  151.19039468500003
989  3  -2.1950722386999995  16.475232136799999  161.2697831776
990  3  -4.3901444789999982  17.742557685699996  171.34908512909999
991  1  -6.5852167189999982  19.009883234999997  12.099768757
992  1  -6.5852167189999982  19.009883234999997  18.138310179600001
993  1  -4.390144478699999  20.277208783799995  22.179055863000002
994  1  -4.390144478699999  20.277208783799995  28.217764580299999
995  1  -6.5852167189999982  21.544534332699993  2.0203143563000001
996  1  -6.5852167189999982  21.544534332699993  8.0590230736000006
997  3  -6.5852167189999982  19.009883234999997  6.3284191978999997
998  3  -6.5852167189999982  19.009883234999997  23.909659738700004
999  3  -4.390144478699999  20.277208783799995  16.407702453200002
1000  3  -4.390144478699999  20.277208783799995  3.7509045240000005
1001  3  -6.5852167189999982  21.544534332699993  26.487174412600002
1002  3  -6.5852167189999982  21.544534332699993  13.8303764835
1003  3  -6.5852167189999982  19.009883234999997  0
1004  3  -4.390144478699999  20.277208783799995  10.079388492600001
1005  3  -6.5852167189999982  21.544534332699993  20.158690444100003
1006  1  -6.5852167189999982  19.009883234999997  42.337847694000004
1007  1  -6.5852167189999982  19.009883234999997  48.376389116600009
1008  1  -4.390144478699999  20.277208783799995  52.417134799999999
1009  1  -4.390144478699999  20.277208783799995  58.455843517299996
1010  1  -6.5852167189999982  21.544534332699993  32.258393293300003
1011  1  -6.5852167189999982  21.544534332699993  38.2971020106
1012  3  -6.5852167189999982  19.009883234999997  36.566498134900009
1013  3  -6.5852167189999982  19.009883234999997  54.147738675700005
1014  3  -4.390144478699999  20.277208783799995  46.6457813902
1015  3  -4.390144478699999  20.277208783799995  33.988983461000004
1016  3  -6.5852167189999982  21.544534332699993  56.72525334960001
1017  3  -6.5852167189999982  21.544534332699993  44.068455420500008
1018  3  -6.5852167189999982  19.009883234999997  30.238078937000004
1019  3  -4.390144478699999  20.277208783799995  40.317467429600008
1020  3  -6.5852167189999982  21.544534332699993  50.3967693811
1021  1  -6.5852167189999982  19.009883234999997  72.575926631000016
1022  1  -6.5852167189999982  19.009883234999997  78.614468053600021
1023  1  -4.390144478699999  20.277208783799995  82.655213737000011
1024  1  -4.390144478699999  20.277208783799995  88.693922454300008
1025  1  -6.5852167189999982  21.544534332699993  62.496472230300007
1026  1  -6.5852167189999982  21.544534332699993  68.535180947599997
1027  3  -6.5852167189999982  19.009883234999997  66.804577071900013
1028  3  -6.5852167189999982  19.009883234999997  84.385817612700023
1029  3  -4.390144478699999  20.277208783799995  76.883860327200011
1030  3  -4.390144478699999  20.277208783799995  64.227062398000001
1031  3  -6.5852167189999982  21.544534332699993  86.963332286600007
1032  3  -6.5852167189999982  21.544534332699993  74.306534357500013
1033  3  -6.5852167189999982  19.009883234999997  60.476157874000009
1034  3  -4.390144478699999  20.277208783799995  70.555546366600012
1035  3  -6.5852167189999982  21.544534332699993  80.634848318100012
1036  1  -6.5852167189999982  19.009883234999997  102.814005568
1037  1  -6.5852167189999982  19.009883234999997  108.8525469906
1038  1  -4.390144478699999  20.277208783799995  112.89329267400002
1039  1  -4.390144478699999  20.277208783799995  118.93200139130001
1040  1  -6.5852167189999982  21.544534332699993  92.734551167300012
1041  1  -6.5852167189999982  21.544534332699993  98.773259884600023
1042  3  -6.5852167189999982  19.009883234999997  97.042656008900011
1043  3  -6.5852167189999982  19.009883234999997  114.62389654970002
1044  3  -4.390144478699999  20.277208783799995  107.12193926420002
1045  3  -4.390144478699999  20.277208783799995  94.465141335000027
1046  3  -6.5852167189999982  21.544534332699993  117.2014112236
1047  3  -6.5852167189999982  21.544534332699993  104.54461329450002
1048  3  -6.5852167189999982  19.009883234999997  90.714236810999992
1049  3  -4.390144478699999  20.277208783799995  100.79362530360002
1050  3  -6.5852167189999982  21.544534332699993  110.87292725510002
1051  1  -6.5852167189999982  19.009883234999997  133.05208450500001
1052  1  -6.5852167189999982  19.009883234999997  139.0906259276
1053  1  -4.390144478699999  20.277208783799995  143.13137161099999
1054  1  -4.390144478699999  20.277208783799995  149.17008032830003
1055  1  -6.5852167189999982  21.544534332699993  122.97263010430002
1056  1  -6.5852167189999982  21.544534332699993  129.01133882159999
1057  3  -6.5852167189999982  19.009883234999997  127.28073494590001
1058  3  -6.5852167189999982  19.009883234999997  144.86197548670003
1059  3  -4.390144478699999  20.277208783799995  137.36001820120001
1060  3  -4.390144478699999  20.277208783799995  124.70322027200002
1061  3  -6.5852167189999982  21.544534332699993  147.4394901606
1062  3  -6.5852167189999982  21.544534332699993  134.78269223149999
1063  3  -6.5852167189999982  19.009883234999997  120.95231574800002
1064  3  -4.390144478699999  20.277208783799995  131.03170424059999
1065  3  -6.5852167189999982  21.544534332699993  141.11100619210001
1066  1  -6.5852167189999982  19.009883234999997  163.29016344199999
1067  1  -6.5852167189999982  19.009883234999997  169.32870486460001
1068  1  -4.390144478699999  20.277208783799995  173.369450548
1069  1  -4.390144478699999  20.277208783799995  179.40815926530004
1070  1  -6.5852167189999982  21.544534332699993  153.21070904129999
1071  1  -6.5852167189999982  21.544534332699993  159.2494177586
1072  3  -6.5852167189999982  19.009883234999997  157.51881388289999
1073  3  -6.5852167189999982  19.009883234999997  175.10005442369999
1074  3  -4.390144478699999  20.277208783799995  167.59809713819999
1075  3  -4.390144478699999  20.277208783799995  154.94129920899999
1076  3  -6.5852167189999982  21.544534332699993  177.67756909760001
1077  3  -6.5852167189999982  21.544534332699993  165.0207711685
1078  3  -6.5852167189999982  19.009883234999997  151.19039468500003
1079  3  -4.390144478699999  20.277208783799995  161.2697831776
1080  3  -6.5852167189999982  21.544534332699993  171.34908512909999
1081  1  8.7802889619999984  -3.0251913696588466e-16  12.099768757
1082  1  8.7802889619999984  -3.0251913696588466e-16  18.138310179600001
1083  1  10.975361202299998  1.2673255487999993  22.179055863000002
1084  1  10.975361202299998  1.2673255487999993  28.217764580299999
1085  1  8.7802889619999984  2.5346510976999994  2.0203143563000001
1086  1  8.7802889619999984  2.5346510976999994  8.0590230736000006
1087  3  8.7802889619999984  -3.0251913696588466e-16  6.3284191978999997
1088  3  8.7802889619999984  -3.0251913696588466e-16  23.909659738700004
1089  3  10.975361202299998  1.2673255487999993  16.407702453200002
1090  3  10.975361202299998  1.2673255487999993  3.7509045240000005
1091  3  8.7802889619999984  2.5346510976999994  26.487174412600002
1092  3  8.7802889619999984  2.5346510976999994  13.8303764835
1093  3  8.7802889619999984  -3.0251913696588466e-16  0
1094  3  10.975361202299998  1.2673255487999993  10.079388492600001
1095  3  8.7802889619999984  2.5346510976999994  20.158690444100003
1096  1  8.7802889619999984  -3.0251913696588466e-16  42.337847694000004
1097  1  8.7802889619999984  -3.0251913696588466e-16  48.376389116600009
1098  1  10.975361202299998  1.2673255487999993  52.417134799999999
1099  1  10.975361202299998  1.2673255487999993  58.455843517299996
1100  1  8.7802889619999984  2.5346510976999994  32.258393293300003
1101  1  8.7802889619999984  2.5346510976999994  38.2971020106
1102  3  8.7802889619999984  -3.0251913696588466e-16  36.566498134900009
1103  3  8.7802889619999984  -3.0251913696588466e-16  54.147738675700005
1104  3  10.975361202299998  1.2673255487999993  46.6457813902
1105  3  10.975361202299998  1.2673255487999993  33.988983461000004
1106  3  8.7802889619999984  2.5346510976999994  56.72525334960001
1107  3  8.7802889619999984  2.5346510976999994  44.068455420500008
1108  3  8.7802889619999984  -3.0251913696588466e-16  30.238078937000004
1109  3  10.975361202299998  1.2673255487999993  40.317467429600008
1110  3  8.7802889619999984  2.5346510976999994  50.3967693811
1111  1  8.7802889619999984  -3.0251913696588466e-16  72.575926631000016
1112  1  8.7802889619999984  -3.0251913696588466e-16  78.614468053600021
1113  1  10.975361202299998  1.2673255487999993  82.655213737000011
1114  1  10.975361202299998  1.2673255487999993  88.693922454300008
1115  1  8.7802889619999984  2.5346510976999994  62.496472230300007
1116  1  8.7802889619999984  2.5346510976999994  68.535180947599997
1117  3  8.7802889619999984  -3.0251913696588466e-16  66.804577071900013
1118  3  8.7802889619999984  -3.0251913696588466e-16  84.385817612700023
1119  3  10.975361202299998  1.2673255487999993  76.883860327200011
1120  3  10.975361202299998  1.2673255487999993  64.227062398000001
1121  3  8.7802889619999984  2.5346510976999994  86.963332286600007
1122  3  8.7802889619999984  2.5346510976999994  74.306534357500013
1123  3  8.7802889619999984  -3.0251913696588466e-16  60.476157874000009
1124  3  10.975361202299998  1.2673255487999993  70.555546366600012
1125  3  8.7802889619999984  2.5346510976999994  80.634848318100012
1126  1  8.7802889619999984  -3.0251913696588466e-16  102.814005568
1127  1  8.7802889619999984  -3.0251913696588466e-16  108.8525469906
1128  1  10.975361202299998  1.2673255487999993  112.89329267400002
1129  1  10.975361202299998  1.2673255487999993  118.93200139130001
1130  1  8.7802889619999984  2.5346510976999994  92.734551167300012
1131  1  8.7802889619999984  2.5346510976999994  98.773259884600023
1132  3  8.7802889619999984  -3.0251913696588466e-16  97.042656008900011
1133  3  8.7802889619999984  -3.0251913696588466e-16  114.62389654970002
1134  3  10.975361202299998  1.2673255487999993  107.12193926420002
1135  3  10.975361202299998  1.2673255487999993  94.465141335000027
1136  3  8.7802889619999984  2.5346510976999994  117.2014112236
1137  3  8.7802889619999984  2.5346510976999994  104.54461329450002
1138  3  8.7802889619999984  -3.0251913696588466e-16  90.714236810999992
1139  3  10.975361202299998  1.2673255487999993  100.79362530360002
1140  3  8.7802889619999984  2.5346510976999994  110.87292725510002
1141  1  8.7802889619999984  -3.0251913696588466e-16  133.05208450500001
1142  1  8.7802889619999984  -3.0251913696588466e-16  139.0906259276
1143  1  10.975361202299998  1.2673255487999993  143.13137161099999
1144  1  10.975361202299998  1.2673255487999993  149.17008032830003
1145  1  8.7802889619999984  2.5346510976999994  122.97263010430002
1146  1  8.7802889619999984  2.5346510976999994  129.01133882159999
1147  3  8.7802889619999984  -3.0251913696588466e-16  127.28073494590001
1148  3  8.7802889619999984  -3.0251913696588466e-16  144.86197548670003
1149  3  10.975361202299998  1.2673255487999993  137.36001820120001
1150  3  10.975361202299998  1.2673255487999993  124.70322027200002
1151  3  8.7802889619999984  2.5346510976999994  147.4394901606
1152  3  8.7802889619999984  2.5346510976999994  134.78269223149999
1153  3  8.7802889619999984  -3.0251913696588466e-16  120.95231574800002
1154  3  10.975361202299998  1.2673255487999993  131.03170424059999
1155  3  8.7802889619999984  2.5346510976999994  141.11100619210001
1156  1  8.7802889619999984  -3.0251913696588466e-16  163.29016344199999
1157  1  8.7802889619999984  -3.0251913696588466e-16  169.32870486460001
1158  1  10.975361202299998  1.2673255487999993  173.369450548
1159  1  10.975361202299998  1.2673255487999993  179.40815926530004
1160  1  8.7802889619999984  2.5346510976999994  153.21070904129999
1161  1  8.7802889619999984  2.5346510976999994  159.2494177586
1162  3  8.7802889619999984  -3.0251913696588466e-16  157.51881388289999
1163  3  8.7802889619999984  -3.0251913696588466e-16  175.10005442369999
1164  3  10.975361202299998  1.2673255487999993  167.59809713819999
1165  3  10.975361202299998  1.2673255487999993  154.94129920899999
1166  3  8.7802889619999984  2.5346510976999994  177.67756909760001
1167  3  8.7802889619999984  2.5346510976999994  165.0207711685
1168  3  8.7802889619999984  -3.0251913696588466e-16  151.19039468500003
1169  3  10.975361202299998  1.2673255487999993  161.2697831776
1170  3  8.7802889619999984  2.5346510976999994  171.34908512909999
1171  1  6.5852167219999993  3.8019766469999996  12.099768757
1172  1  6.5852167219999993  3.8019766469999996  18.138310179600001
1173  1  8.7802889622999984  5.0693021957999989  22.179055863000002
1174  1  8.7802889622999984  5.0693021957999989  28.217764580299999
1175  1  6.5852167219999993  6.3366277446999986  2.0203143563000001
1176  1  6.5852167219999993  6.3366277446999986  8.0590230736000006
1177  3  6.5852167219999993  3.8019766469999996  6.3284191978999997
1178  3  6.5852167219999993  3.8019766469999996  23.909659738700004
1179  3  8.7802889622999984  5.0693021957999989  16.407702453200002
1180  3  8.7802889622999984  5.0693021957999989  3.7509045240000005
1181  3  6.5852167219999993  6.3366277446999986  26.487174412600002
1182  3  6.5852167219999993  6.3366277446999986  13.8303764835
1183  3  6.5852167219999993  3.8019766469999996  0
1184  3  8.7802889622999984  5.0693021957999989  10.079388492600001
1185  3  6.5852167219999993  6.3366277446999986  20.158690444100003
1186  1  6.5852167219999993  3.8019766469999996  42.337847694000004
1187  1  6.5852167219999993  3.8019766469999996  48.376389116600009
1188  1  8.7802889622999984  5.0693021957999989  52.417134799999999
1189  1  8.7802889622999984  5.0693021957999989  58.455843517299996
1190  1  6.5852167219999993  6.3366277446999986  32.258393293300003
1191  1  6.5852167219999993  6.3366277446999986  38.2971020106
1192  3  6.5852167219999993  3.8019766469999996  36.566498134900009
1193  3  6.5852167219999993  3.8019766469999996  54.147738675700005
1194  3  8.7802889622999984  5.0693021957999989  46.6457813902
1195  3  8.7802889622999984  5.0693021957999989  33.988983461000004
1196  3  6.5852167219999993  6.3366277446999986  56.72525334960001
1197  3  6.5852167219999993  6.3366277446999986  44.068455420500008
1198  3  6.5852167219999993  3.8019766469999996  30.238078937000004
1199  3  8.7802889622999984  5.0693021957999989  40.317467429600008
1200  3  6.5852167219999993  6.3366277446999986  50.3967693811
1201  1  6.5852167219999993  3.8019766469999996  72.575926631000016
1202  1  6.5852167219999993  3.8019766469999996  78.614468053600021
1203  1  8.7802889622999984  5.0693021957999989  82.655213737000011
1204  1  8.7802889622999984  5.0693021957999989  88.693922454300008
1205  1  6.5852167219999993  6.3366277446999986  62.496472230300007
1206  1  6.5852167219999993  6.3366277446999986  68.535180947599997
1207  3  6.5852167219999993  3.8019766469999996  66.804577071900013
1208  3  6.5852167219999993  3.8019766469999996  84.385817612700023
1209  3  8.7802889622999984  5.0693021957999989  76.883860327200011
1210  3  8.7802889622999984  5.0693021957999989  64.227062398000001
1211  3  6.5852167219999993  6.3366277446999986  86.963332286600007
1212  3  6.5852167219999993  6.3366277446999986  74.306534357500013
1213  3  6.5852167219999993  3.8019766469999996  60.476157874000009
1214  3  8.7802889622999984  5.0693021957999989  70.555546366600012
1215  3  6.5852167219999993  6.3366277446999986  80.634848318100012
1216  1  6.5852167219999993  3.8019766469999996  102.814005568
1217  1  6.5852167219999993  3.8019766469999996  108.8525469906
1218  1  8.7802889622999984  5.0693021957999989  112.89329267400002
1219  1  8.7802889622999984  5.0693021957999989  118.93200139130001
1220  1  6.5852167219999993  6.3366277446999986  92.734551167300012
1221  1  6.5852167219999993  6.3366277446999986  98.773259884600023
1222  3  6.5852167219999993  3.8019766469999996  97.042656008900011
1223  3  6.5852167219999993  3.8019766469999996  114.62389654970002
1224  3  8.7802889622999984  5.0693021957999989  107.12193926420002
1225  3  8.7802889622999984  5.0693021957999989  94.465141335000027
1226  3  6.5852167219999993  6.3366277446999986  117.2014112236
1227  3  6.5852167219999993  6.3366277446999986  104.54461329450002
1228  3  6.5852167219999993  3.8019766469999996  90.714236810999992
1229  3  8.7802889622999984  5.0693021957999989  100.79362530360002
1230  3  6.5852167219999993  6.3366277446999986  110.87292725510002
1231  1  6.5852167219999993  3.8019766469999996  133.05208450500001
1232  1  6.5852167219999993  3.8019766469999996  139.0906259276
1233  1  8.7802889622999984  5.0693021957999989  143.13137161099999
1234  1  8.7802889622999984  5.0693021957999989  149.17008032830003
1235  1  6.5852167219999993  6.3366277446999986  122.97263010430002
1236  1  6.5852167219999993  6.3366277446999986  129.01133882159999
1237  3  6.5852167219999993  3.8019766469999996  127.28073494590001
1238  3  6.5852167219999993  3.8019766469999996  144.86197548670003
1239  3  8.7802889622999984  5.0693021957999989  137.36001820120001
1240  3  8.7802889622999984  5.0693021957999989  124.70322027200002
1241  3  6.5852167219999993  6.3366277446999986  147.4394901606
1242  3  6.5852167219999993  6.3366277446999986  134.78269223149999
1243  3  6.5852167219999993  3.8019766469999996  120.95231574800002
1244  3  8.7802889622999984  5.0693021957999989  131.03170424059999
1245  3  6.5852167219999993  6.3366277446999986  141.11100619210001
1246  1  6.5852167219999993  3.8019766469999996  163.29016344199999
1247  1  6.5852167219999993  3.8019766469999996  169.32870486460001
1248  1  8.7802889622999984  5.0693021957999989  173.369450548
1249  1  8.7802889622999984  5.0693021957999989  179.40815926530004
1250  1  6.5852167219999993  6.3366277446999986  153.21070904129999
1251  1  6.5852167219999993  6.3366277446999986  159.2494177586
1252  3  6.5852167219999993  3.8019766469999996  157.51881388289999
1253  3  6.5852167219999993  3.8019766469999996  175.10005442369999
1254  3  8.7802889622999984  5.0693021957999989  167.59809713819999
1255  3  8.7802889622999984  5.0693021957999989  154.94129920899999
1256  3  6.5852167219999993  6.3366277446999986  177.67756909760001
1257  3  6.5852167219999993  6.3366277446999986  165.0207711685
1258  3  6.5852167219999993  3.8019766469999996  151.19039468500003
1259  3  8.7802889622999984  5.0693021957999989  161.2697831776
1260  3  6.5852167219999993  6.3366277446999986  171.34908512909999
1261  1  4.3901444819999993  7.6039532939999992  12.099768757
1262  1  4.3901444819999993  7.6039532939999992  18.138310179600001
1263  1  6.5852167222999993  8.8712788427999989  22.179055863000002
1264  1  6.5852167222999993  8.8712788427999989  28.217764580299999
1265  1  4.3901444820000002  10.138604391699998  2.0203143563000001
1266  1  4.3901444820000002  10.138604391699998  8.0590230736000006
1267  3  4.3901444819999993  7.6039532939999992  6.3284191978999997
1268  3  4.3901444819999993  7.6039532939999992  23.909659738700004
1269  3  6.5852167222999993  8.8712788427999989  16.407702453200002
1270  3  6.5852167222999993  8.8712788427999989  3.7509045240000005
1271  3  4.3901444820000002  10.138604391699998  26.487174412600002
1272  3  4.3901444820000002  10.138604391699998  13.8303764835
1273  3  4.3901444819999993  7.6039532939999992  0
1274  3  6.5852167222999993  8.8712788427999989  10.079388492600001
1275  3  4.3901444820000002  10.138604391699998  20.158690444100003
1276  1  4.3901444819999993  7.6039532939999992  42.337847694000004
1277  1  4.3901444819999993  7.6039532939999992  48.376389116600009
1278  1  6.5852167222999993  8.8712788427999989  52.417134799999999
1279  1  6.5852167222999993  8.8712788427999989  58.455843517299996
1280  1  4.3901444820000002  10.138604391699998  32.258393293300003
1281  1  4.3901444820000002  10.138604391699998  38.2971020106
1282  3  4.3901444819999993  7.6039532939999992  36.566498134900009
1283  3  4.3901444819999993  7.6039532939999992  54.147738675700005
1284  3  6.5852167222999993  8.8712788427999989  46.6457813902
1285  3  6.5852167222999993  8.8712788427999989  33.988983461000004
1286  3  4.3901444820000002  10.138604391699998  56.72525334960001
1287  3  4.3901444820000002  10.138604391699998  44.068455420500008
1288  3  4.3901444819999993  7.6039532939999992  30.238078937000004
1289  3  6.5852167222999993  8.8712788427999989  40.317467429600008
1290  3  4.3901444820000002  10.138604391699998  50.3967693811
1291  1  4.3901444819999993  7.6039532939999992  72.575926631000016
1292  1  4.3901444819999993  7.6039532939999992  78.614468053600021
1293  1  6.5852167222999993  8.8712788427999989  82.655213737000011
1294  1  6.5852167222999993  8.8712788427999989  88.693922454300008
1295  1  4.3901444820000002  10.138604391699998  62.496472230300007
1296  1  4.3901444820000002  10.138604391699998  68.535180947599997
1297  3  4.3901444819999993  7.6039532939999992  66.804577071900013
1298  3  4.3901444819999993  7.6039532939999992  84.385817612700023
1299  3  6.5852167222999993  8.8712788427999989  76.883860327200011
1300  3  6.5852167222999993  8.8712788427999989  64.227062398000001
1301  3  4.3901444820000002  10.138604391699998  86.963332286600007
1302  3  4.3901444820000002  10.138604391699998  74.306534357500013
1303  3  4.3901444819999993  7.6039532939999992  60.476157874000009
1304  3  6.5852167222999993  8.8712788427999989  70.555546366600012
1305  3  4.3901444820000002  10.138604391699998  80.634848318100012
1306  1  4.3901444819999993  7.6039532939999992  102.814005568
1307  1  4.3901444819999993  7.6039532939999992  108.8525469906
1308  1  6.5852167222999993  8.8712788427999989  112.89329267400002
1309  1  6.5852167222999993  8.8712788427999989  118.93200139130001
1310  1  4.3901444820000002  10.138604391699998  92.734551167300012
1311  1  4.3901444820000002  10.138604391699998  98.773259884600023
1312  3  4.3901444819999993  7.6039532939999992  97.042656008900011
1313  3  4.3901444819999993  7.6039532939999992  114.62389654970002
1314  3  6.5852167222999993  8.8712788427999989  107.12193926420002
1315  3  6.5852167222999993  8.8712788427999989  94.465141335000027
1316  3  4.3901444820000002  10.138604391699998  117.2014112236
1317  3  4.3901444820000002  10.138604391699998  104.54461329450002
1318  3  4.3901444819999993  7.6039532939999992  90.714236810999992
1319  3  6.5852167222999993  8.8712788427999989  100.79362530360002
1320  3  4.3901444820000002  10.138604391699998  110.87292725510002
1321  1  4.3901444819999993  7.6039532939999992  133.05208450500001
1322  1  4.3901444819999993  7.6039532939999992  139.0906259276
1323  1  6.5852167222999993  8.8712788427999989  143.13137161099999
1324  1  6.5852167222999993  8.8712788427999989  149.17008032830003
1325  1  4.3901444820000002  10.138604391699998  122.97263010430002
1326  1  4.3901444820000002  10.138604391699998  129.01133882159999
1327  3  4.3901444819999993  7.6039532939999992  127.28073494590001
1328  3  4.3901444819999993  7.6039532939999992  144.86197548670003
1329  3  6.5852167222999993  8.8712788427999989  137.36001820120001
1330  3  6.5852167222999993  8.8712788427999989  124.70322027200002
1331  3  4.3901444820000002  10.138604391699998  147.4394901606
1332  3  4.3901444820000002  10.138604391699998  134.78269223149999
1333  3  4.3901444819999993  7.6039532939999992  120.95231574800002
1334  3  6.5852167222999993  8.8712788427999989  131.03170424059999
1335  3  4.3901444820000002  10.138604391699998  141.11100619210001
1336  1  4.3901444819999993  7.6039532939999992  163.29016344199999
1337  1  4.3901444819999993  7.6039532939999992  169.32870486460001
1338  1  6.5852167222999993  8.8712788427999989  173.369450548
1339  1  6.5852167222999993  8.8712788427999989  179.40815926530004
1340  1  4.3901444820000002  10.138604391699998  153.21070904129999
1341  1  4.3901444820000002  10.138604391699998  159.2494177586
1342  3  4.3901444819999993  7.6039532939999992  157.51881388289999
1343  3  4.3901444819999993  7.6039532939999992  175.10005442369999
1344  3  6.5852167222999993  8.8712788427999989  167.59809713819999
1345  3  6.5852167222999993  8.8712788427999989  154.94129920899999
1346  3  4.3901444820000002  10.138604391699998  177.67756909760001
1347  3  4.3901444820000002  10.138604391699998  165.0207711685
1348  3  4.3901444819999993  7.6039532939999992  151.19039468500003
1349  3  6.5852167222999993  8.8712788427999989  161.2697831776
1350  3  4.3901444820000002  10.138604391699998  171.34908512909999
1351  1  2.1950722420000006  11.405929940999997  12.099768757
1352  1  2.1950722420000006  11.405929940999997  18.138310179600001
1353  1  4.3901444822999993  12.673255489799997  22.179055863000002
1354  1  4.3901444822999993  12.673255489799997  28.217764580299999
1355  1  2.1950722419999997  13.940581038699998  2.0203143563000001
1356  1  2.1950722419999997  13.940581038699998  8.0590230736000006
1357  3  2.1950722420000006  11.405929940999997  6.3284191978999997
1358  3  2.1950722420000006  11.405929940999997  23.909659738700004
1359  3  4.3901444822999993  12.673255489799997  16.407702453200002
1360  3  4.3901444822999993  12.673255489799997  3.7509045240000005
1361  3  2.1950722419999997  13.940581038699998  26.487174412600002
1362  3  2.1950722419999997  13.940581038699998  13.8303764835
1363  3  2.1950722420000006  11.405929940999997  0
1364  3  4.3901444822999993  12.673255489799997  10.079388492600001
1365  3  2.1950722419999997  13.940581038699998  20.158690444100003
1366  1  2.1950722420000006  11.405929940999997  42.337847694000004
1367  1  2.1950722420000006  11.405929940999997  48.376389116600009
1368  1  4.3901444822999993  12.673255489799997  52.417134799999999
1369  1  4.3901444822999993  12.673255489799997  58.455843517299996
1370  1  2.1950722419999997  13.940581038699998  32.258393293300003
1371  1  2.1950722419999997  13.940581038699998  38.2971020106
1372  3  2.1950722420000006  11.405929940999997  36.566498134900009
1373  3  2.1950722420000006  11.405929940999997  54.147738675700005
1374  3  4.3901444822999993  12.673255489799997  46.6457813902
1375  3  4.3901444822999993  12.673255489799997  33.988983461000004
1376  3  2.1950722419999997  13.940581038699998  56.72525334960001
1377  3  2.1950722419999997  13.940581038699998  44.068455420500008
1378  3  2.1950722420000006  11.405929940999997  30.238078937000004
1379  3  4.3901444822999993  12.673255489799997  40.317467429600008
1380  3  2.1950722419999997  13.940581038699998  50.3967693811
1381  1  2.1950722420000006  11.405929940999997  72.575926631000016
1382  1  2.1950722420000006  11.405929940999997  78.614468053600021
1383  1  4.3901444822999993  12.673255489799997  82.655213737000011
1384  1  4.3901444822999993  12.673255489799997  88.693922454300008
1385  1  2.1950722419999997  13.940581038699998  62.496472230300007
1386  1  2.1950722419999997  13.940581038699998  68.535180947599997
1387  3  2.1950722420000006  11.405929940999997  66.804577071900013
1388  3  2.1950722420000006  11.405929940999997  84.385817612700023
1389  3  4.3901444822999993  12.673255489799997  76.883860327200011
1390  3  4.3901444822999993  12.673255489799997  64.227062398000001
1391  3  2.1950722419999997  13.940581038699998  86.963332286600007
1392  3  2.1950722419999997  13.940581038699998  74.306534357500013
1393  3  2.1950722420000006  11.405929940999997  60.476157874000009
1394  3  4.3901444822999993  12.673255489799997  70.555546366600012
1395  3  2.1950722419999997  13.940581038699998  80.634848318100012
1396  1  2.1950722420000006  11.405929940999997  102.814005568
1397  1  2.1950722420000006  11.405929940999997  108.8525469906
1398  1  4.3901444822999993  12.673255489799997  112.89329267400002
1399  1  4.3901444822999993  12.673255489799997  118.93200139130001
1400  1  2.1950722419999997  13.940581038699998  92.734551167300012
1401  1  2.1950722419999997  13.940581038699998  98.773259884600023
1402  3  2.1950722420000006  11.405929940999997  97.042656008900011
1403  3  2.1950722420000006  11.405929940999997  114.62389654970002
1404  3  4.3901444822999993  12.673255489799997  107.12193926420002
1405  3  4.3901444822999993  12.673255489799997  94.465141335000027
1406  3  2.1950722419999997  13.940581038699998  117.2014112236
1407  3  2.1950722419999997  13.940581038699998  104.54461329450002
1408  3  2.1950722420000006  11.405929940999997  90.714236810999992
1409  3  4.3901444822999993  12.673255489799997  100.79362530360002
1410  3  2.1950722419999997  13.940581038699998  110.87292725510002
1411  1  2.1950722420000006  11.405929940999997  133.05208450500001
1412  1  2.1950722420000006  11.405929940999997  139.0906259276
1413  1  4.3901444822999993  12.673255489799997  143.13137161099999
1414  1  4.3901444822999993  12.673255489799997  149.17008032830003
1415  1  2.1950722419999997  13.940581038699998  122.97263010430002
1416  1  2.1950722419999997  13.940581038699998  129.01133882159999
1417  3  2.1950722420000006  11.405929940999997  127.28073494590001
1418  3  2.1950722420000006  11.405929940999997  144.86197548670003
1419  3  4.3901444822999993  12.673255489799997  137.36001820120001
1420  3  4.3901444822999993  12.673255489799997  124.70322027200002
1421  3  2.1950722419999997  13.940581038699998  147.4394901606
1422  3  2.1950722419999997  13.940581038699998  134.78269223149999
1423  3  2.1950722420000006  11.405929940999997  120.95231574800002
1424  3  4.3901444822999993  12.673255489799997  131.03170424059999
1425  3  2.1950722419999997  13.940581038699998  141.11100619210001
1426  1  2.1950722420000006  11.405929940999997  163.29016344199999
1427  1  2.1950722420000006  11.405929940999997  169.32870486460001
1428  1  4.3901444822999993  12.673255489799997  173.369450548
1429  1  4.3901444822999993  12.673255489799997  179.40815926530004
1430  1  2.1950722419999997  13.940581038699998  153.21070904129999
1431  1  2.1950722419999997  13.940581038699998  159.2494177586
1432  3  2.1950722420000006  11.405929940999997  157.51881388289999
1433  3  2.1950722420000006  11.405929940999997  175.10005442369999
1434  3  4.3901444822999993  12.673255489799997  167.59809713819999
1435  3  4.3901444822999993  12.673255489799997  154.94129920899999
1436  3  2.1950722419999997  13.940581038699998  177.67756909760001
1437  3  2.1950722419999997  13.940581038699998  165.0207711685
1438  3  2.1950722420000006  11.405929940999997  151.19039468500003
1439  3  4.3901444822999993  12.673255489799997  161.2697831776
1440  3  2.1950722419999997  13.940581038699998  171.34908512909999
1441  1  2.0000006528846897e-09  15.207906587999998  12.099768757
1442  1  2.0000006528846897e-09  15.207906587999998  18.138310179600001
1443  1  2.1950722423000006  16.475232136799995  22.179055863000002
1444  1  2.1950722423000006  16.475232136799995  28.217764580299999
1445  1  2.0000008571223419e-09  17.742557685699996  2.0203143563000001
1446  1  2.0000008571223419e-09  17.742557685699996  8.0590230736000006
1447  3  2.0000006528846897e-09  15.207906587999998  6.3284191978999997
1448  3  2.0000006528846897e-09  15.207906587999998  23.909659738700004
1449  3  2.1950722423000006  16.475232136799995  16.407702453200002
1450  3  2.1950722423000006  16.475232136799995  3.7509045240000005
1451  3  2.0000008571223419e-09  17.742557685699996  26.487174412600002
1452  3  2.0000008571223419e-09  17.742557685699996  13.8303764835
1453  3  2.0000006528846897e-09  15.207906587999998  0
1454  3  2.1950722423000006  16.475232136799995  10.079388492600001
1455  3  2.0000008571223419e-09  17.742557685699996  20.158690444100003
1456  1  2.0000006528846897e-09  15.207906587999998  42.337847694000004
1457  1  2.0000006528846897e-09  15.207906587999998  48.376389116600009
1458  1  2.1950722423000006  16.475232136799995  52.417134799999999
1459  1  2.1950722423000006  16.475232136799995  58.455843517299996
1460  1  2.0000008571223419e-09  17.742557685699996  32.258393293300003
1461  1  2.0000008571223419e-09  17.742557685699996  38.2971020106
1462  3  2.0000006528846897e-09  15.207906587999998  36.566498134900009
1463  3  2.0000006528846897e-09  15.207906587999998  54.147738675700005
1464  3  2.1950722423000006  16.475232136799995  46.6457813902
1465  3  2.1950722423000006  16.475232136799995  33.988983461000004
1466  3  2.0000008571223419e-09  17.742557685699996  56.72525334960001
1467  3  2.0000008571223419e-09  17.742557685699996  44.068455420500008
1468  3  2.0000006528846897e-09  15.207906587999998  30.238078937000004
1469  3  2.1950722423000006  16.475232136799995  40.317467429600008
1470  3  2.0000008571223419e-09  17.742557685699996  50.3967693811
1471  1  2.0000006528846897e-09  15.207906587999998  72.575926631000016
1472  1  2.0000006528846897e-09  15.207906587999998  78.614468053600021
1473  1  2.1950722423000006  16.475232136799995  82.655213737000011
1474  1  2.1950722423000006  16.475232136799995  88.693922454300008
1475  1  2.0000008571223419e-09  17.742557685699996  62.496472230300007
1476  1  2.0000008571223419e-09  17.742557685699996  68.535180947599997
1477  3  2.0000006528846897e-09  15.207906587999998  66.804577071900013
1478  3  2.0000006528846897e-09  15.207906587999998  84.385817612700023
1479  3  2.1950722423000006  16.475232136799995  76.883860327200011
1480  3  2.1950722423000006  16.475232136799995  64.227062398000001
1481  3  2.0000008571223419e-09  17.742557685699996  86.963332286600007
1482  3  2.0000008571223419e-09  17.742557685699996  74.306534357500013
1483  3  2.0000006528846897e-09  15.207906587999998  60.476157874000009
1484  3  2.1950722423000006  16.475232136799995  70.555546366600012
1485  3  2.0000008571223419e-09  17.742557685699996  80.634848318100012
1486  1  2.0000006528846897e-09  15.207906587999998  102.814005568
1487  1  2.0000006528846897e-09  15.207906587999998  108.8525469906
1488  1  2.1950722423000006  16.475232136799995  112.89329267400002
1489  1  2.1950722423000006  16.475232136799995  118.93200139130001
1490  1  2.0000008571223419e-09  17.742557685699996  92.734551167300012
1491  1  2.0000008571223419e-09  17.742557685699996  98.773259884600023
1492  3  2.0000006528846897e-09  15.207906587999998  97.042656008900011
1493  3  2.0000006528846897e-09  15.207906587999998  114.62389654970002
1494  3  2.1950722423000006  16.475232136799995  107.12193926420002
1495  3  2.1950722423000006  16.475232136799995  94.465141335000027
1496  3  2.0000008571223419e-09  17.742557685699996  117.2014112236
1497  3  2.0000008571223419e-09  17.742557685699996  104.54461329450002
1498  3  2.0000006528846897e-09  15.207906587999998  90.714236810999992
1499  3  2.1950722423000006  16.475232136799995  100.79362530360002
1500  3  2.0000008571223419e-09  17.742557685699996  110.87292725510002
1501  1  2.0000006528846897e-09  15.207906587999998  133.05208450500001
1502  1  2.0000006528846897e-09  15.207906587999998  139.0906259276
1503  1  2.1950722423000006  16.475232136799995  143.13137161099999
1504  1  2.1950722423000006  16.475232136799995  149.17008032830003
1505  1  2.0000008571223419e-09  17.742557685699996  122.97263010430002
1506  1  2.0000008571223419e-09  17.742557685699996  129.01133882159999
1507  3  2.0000006528846897e-09  15.207906587999998  127.28073494590001
1508  3  2.0000006528846897e-09  15.207906587999998  144.86197548670003
1509  3  2.1950722423000006  16.475232136799995  137.36001820120001
1510  3  2.1950722423000006  16.475232136799995  124.70322027200002
1511  3  2.0000008571223419e-09  17.742557685699996  147.4394901606
1512  3  2.0000008571223419e-09  17.742557685699996  134.78269223149999
1513  3  2.0000006528846897e-09  15.207906587999998  120.95231574800002
1514  3  2.1950722423000006  16.475232136799995  131.03170424059999
1515  3  2.0000008571223419e-09  17.742557685699996  141.11100619210001
1516  1  2.0000006528846897e-09  15.207906587999998  163.29016344199999
1517  1  2.0000006528846897e-09  15.207906587999998  169.32870486460001
1518  1  2.1950722423000006  16.475232136799995  173.369450548
1519  1  2.1950722423000006  16.475232136799995  179.40815926530004
1520  1  2.0000008571223419e-09  17.742557685699996  153.21070904129999
1521  1  2.0000008571223419e-09  17.742557685699996  159.2494177586
1522  3  2.0000006528846897e-09  15.207906587999998  157.51881388289999
1523  3  2.0000006528846897e-09  15.207906587999998  175.10005442369999
1524  3  2.1950722423000006  16.475232136799995  167.59809713819999
1525  3  2.1950722423000006  16.475232136799995  154.94129920899999
1526  3  2.0000008571223419e-09  17.742557685699996  177.67756909760001
1527  3  2.0000008571223419e-09  17.742557685699996  165.0207711685
1528  3  2.0000006528846897e-09  15.207906587999998  151.19039468500003
1529  3  2.1950722423000006  16.475232136799995  161.2697831776
1530  3  2.0000008571223419e-09  17.742557685699996  171.34908512909999
1531  1  -2.1950722379999985  19.009883234999997  12.099768757
1532  1  -2.1950722379999985  19.009883234999997  18.138310179600001
1533  1  2.3000014095811726e-09  20.277208783799995  22.179055863000002
1534  1  2.3000014095811726e-09  20.277208783799995  28.217764580299999
1535  1  -2.1950722379999981  21.544534332699993  2.0203143563000001
1536  1  -2.1950722379999981  21.544534332699993  8.0590230736000006
1537  3  -2.1950722379999985  19.009883234999997  6.3284191978999997
1538  3  -2.1950722379999985  19.009883234999997  23.909659738700004
1539  3  2.3000014095811726e-09  20.277208783799995  16.407702453200002
1540  3  2.3000014095811726e-09  20.277208783799995  3.7509045240000005
1541  3  -2.1950722379999981  21.544534332699993  26.487174412600002
1542  3  -2.1950722379999981  21.544534332699993  13.8303764835
1543  3  -2.1950722379999985  19.009883234999997  0
1544  3  2.3000014095811726e-09  20.277208783799995  10.079388492600001
1545  3  -2.1950722379999981  21.544534332699993  20.158690444100003
1546  1  -2.1950722379999985  19.009883234999997  42.337847694000004
1547  1  -2.1950722379999985  19.009883234999997  48.376389116600009
1548  1  2.3000014095811726e-09  20.277208783799995  52.417134799999999
1549  1  2.3000014095811726e-09  20.277208783799995  58.455843517299996
1550  1  -2.1950722379999981  21.544534332699993  32.258393293300003
1551  1  -2.1950722379999981  21.544534332699993  38.2971020106
1552  3  -2.1950722379999985  19.009883234999997  36.566498134900009
1553  3  -2.1950722379999985  19.009883234999997  54.147738675700005
1554  3  2.3000014095811726e-09  20.277208783799995  46.6457813902
1555  3  2.3000014095811726e-09  20.277208783799995  33.988983461000004
1556  3  -2.1950722379999981  21.544534332699993  56.72525334960001
1557  3  -2.1950722379999981  21.544534332699993  44.068455420500008
1558  3  -2.1950722379999985  19.009883234999997  30.238078937000004
1559  3  2.3000014095811726e-09  20.277208783799995  40.317467429600008
1560  3  -2.1950722379999981  21.544534332699993  50.3967693811
1561  1  -2.1950722379999985  19.009883234999997  72.575926631000016
1562  1  -2.1950722379999985  19.009883234999997  78.614468053600021
1563  1  2.3000014095811726e-09  20.277208783799995  82.655213737000011
1564  1  2.3000014095811726e-09  20.277208783799995  88.693922454300008
1565  1  -2.1950722379999981  21.544534332699993  62.496472230300007
1566  1  -2.1950722379999981  21.544534332699993  68.535180947599997
1567  3  -2.1950722379999985  19.009883234999997  66.804577071900013
1568  3  -2.1950722379999985  19.009883234999997  84.385817612700023
1569  3  2.3000014095811726e-09  20.277208783799995  76.883860327200011
1570  3  2.3000014095811726e-09  20.277208783799995  64.227062398000001
1571  3  -2.1950722379999981  21.544534332699993  86.963332286600007
1572  3  -2.1950722379999981  21.544534332699993  74.306534357500013
1573  3  -2.1950722379999985  19.009883234999997  60.476157874000009
1574  3  2.3000014095811726e-09  20.277208783799995  70.555546366600012
1575  3  -2.1950722379999981  21.544534332699993  80.634848318100012
1576  1  -2.1950722379999985  19.009883234999997  102.814005568
1577  1  -2.1950722379999985  19.009883234999997  108.8525469906
1578  1  2.3000014095811726e-09  20.277208783799995  112.89329267400002
1579  1  2.3000014095811726e-09  20.277208783799995  118.93200139130001
1580  1  -2.1950722379999981  21.544534332699993  92.734551167300012
1581  1  -2.1950722379999981  21.544534332699993  98.773259884600023
1582  3  -2.1950722379999985  19.009883234999997  97.042656008900011
1583  3  -2.1950722379999985  19.009883234999997  114.62389654970002
1584  3  2.3000014095811726e-09  20.277208783799995  107.12193926420002
1585  3  2.3000014095811726e-09  20.277208783799995  94.465141335000027
1586  3  -2.1950722379999981  21.544534332699993  117.2014112236
1587  3  -2.1950722379999981  21.544534332699993  104.54461329450002
1588  3  -2.1950722379999985  19.009883234999997  90.714236810999992
1589  3  2.3000014095811726e-09  20.277208783799995  100.79362530360002
1590  3  -2.1950722379999981  21.544534332699993  110.87292725510002
1591  1  -2.1950722379999985  19.009883234999997  133.05208450500001
1592  1  -2.1950722379999985  19.009883234999997  139.0906259276
1593  1  2.3000014095811726e-09  20.277208783799995  143.13137161099999
1594  1  2.3000014095811726e-09  20.277208783799995  149.17008032830003
1595  1  -2.1950722379999981  21.544534332699993  122.97263010430002
1596  1  -2.1950722379999981  21.544534332699993  129.01133882159999
1597  3  -2.1950722379999985  19.009883234999997  127.28073494590001
1598  3  -2.1950722379999985  19.009883234999997  144.86197548670003
1599  3  2.3000014095811726e-09  20.277208783799995  137.36001820120001
1600  3  2.3000014095811726e-09  20.277208783799995  124.70322027200002
1601  3  -2.1950722379999981  21.544534332699993  147.4394901606
1602  3  -2.1950722379999981  21.544534332699993  134.78269223149999
1603  3  -2.1950722379999985  19.009883234999997  120.95231574800002
1604  3  2.3000014095811726e-09  20.277208783799995  131.03170424059999
1605  3  -2.1950722379999981  21.544534332699993  141.11100619210001
1606  1  -2.1950722379999985  19.009883234999997  163.29016344199999
1607  1  -2.1950722379999985  19.009883234999997  169.32870486460001
1608  1  2.3000014095811726e-09  20.277208783799995  173.369450548
1609  1  2.3000014095811726e-09  20.277208783799995  179.40815926530004
1610  1  -2.1950722379999981  21.544534332699993  153.21070904129999
1611  1  -2.1950722379999981  21.544534332699993  159.2494177586
1612  3  -2.1950722379999985  19.009883234999997  157.51881388289999
1613  3  -2.1950722379999985  19.009883234999997  175.10005442369999
1614  3  2.3000014095811726e-09  20.277208783799995  167.59809713819999
1615  3  2.3000014095811726e-09  20.277208783799995  154.94129920899999
1616  3  -2.1950722379999981  21.544534332699993  177.67756909760001
1617  3  -2.1950722379999981  21.544534332699993  165.0207711685
1618  3  -2.1950722379999985  19.009883234999997  151.19039468500003
1619  3  2.3000014095811726e-09  20.277208783799995  161.2697831776
1620  3  -2.1950722379999981  21.544534332699993  171.34908512909999
1621  1  13.170433442999997  -4.5377870544882693e-16  12.099768757
1622  1  13.170433442999997  -4.5377870544882693e-16  18.138310179600001
1623  1  15.3655056833  1.267325548799999  22.179055863000002
1624  1  15.3655056833  1.267325548799999  28.217764580299999
1625  1  13.170433442999999  2.534651097699999  2.0203143563000001
1626  1  13.170433442999999  2.534651097699999  8.0590230736000006
1627  3  13.170433442999997  -4.5377870544882693e-16  6.3284191978999997
1628  3  13.170433442999997  -4.5377870544882693e-16  23.909659738700004
1629  3  15.3655056833  1.267325548799999  16.407702453200002
1630  3  15.3655056833  1.267325548799999  3.7509045240000005
1631  3  13.170433442999999  2.534651097699999  26.487174412600002
1632  3  13.170433442999999  2.534651097699999  13.8303764835
1633  3  13.170433442999997  -4.5377870544882693e-16  0
1634  3  15.3655056833  1.267325548799999  10.079388492600001
1635  3  13.170433442999999  2.534651097699999  20.158690444100003
1636  1  13.170433442999997  -4.5377870544882693e-16  42.337847694000004
1637  1  13.170433442999997  -4.5377870544882693e-16  48.376389116600009
1638  1  15.3655056833  1.267325548799999  52.417134799999999
1639  1  15.3655056833  1.267325548799999  58.455843517299996
1640  1  13.170433442999999  2.534651097699999  32.258393293300003
1641  1  13.170433442999999  2.534651097699999  38.2971020106
1642  3  13.170433442999997  -4.5377870544882693e-16  36.566498134900009
1643  3  13.170433442999997  -4.5377870544882693e-16  54.147738675700005
1644  3  15.3655056833  1.267325548799999  46.6457813902
1645  3  15.3655056833  1.267325548799999  33.988983461000004
1646  3  13.170433442999999  2.534651097699999  56.72525334960001
1647  3  13.170433442999999  2.534651097699999  44.068455420500008
1648  3  13.170433442999997  -4.5377870544882693e-16  30.238078937000004
1649  3  15.3655056833  1.267325548799999  40.317467429600008
1650  3  13.170433442999999  2.534651097699999  50.3967693811
1651  1  13.170433442999997  -4.5377870544882693e-16  72.575926631000016
1652  1  13.170433442999997  -4.5377870544882693e-16  78.614468053600021
1653  1  15.3655056833  1.267325548799999  82.655213737000011
1654  1  15.3655056833  1.267325548799999  88.693922454300008
1655  1  13.170433442999999  2.534651097699999  62.496472230300007
1656  1  13.170433442999999  2.534651097699999  68.535180947599997
1657  3  13.170433442999997  -4.5377870544882693e-16  66.804577071900013
1658  3  13.170433442999997  -4.5377870544882693e-16  84.385817612700023
1659  3  15.3655056833  1.267325548799999  76.883860327200011
1660  3  15.3655056833  1.267325548799999  64.227062398000001
1661  3  13.170433442999999  2.534651097699999  86.963332286600007
1662  3  13.170433442999999  2.534651097699999  74.306534357500013
1663  3  13.170433442999997  -4.5377870544882693e-16  60.476157874000009
1664  3  15.3655056833  1.267325548799999  70.555546366600012
1665  3  13.170433442999999  2.534651097699999  80.634848318100012
1666  1  13.170433442999997  -4.5377870544882693e-16  102.814005568
1667  1  13.170433442999997  -4.5377870544882693e-16  108.8525469906
1668  1  15.3655056833  1.267325548799999  112.89329267400002
1669  1  15.3655056833  1.267325548799999  118.93200139130001
1670  1  13.170433442999999  2.534651097699999  92.734551167300012
1671  1  13.170433442999999  2.534651097699999  98.773259884600023
1672  3  13.170433442999997  -4.5377870544882693e-16  97.042656008900011
1673  3  13.170433442999997  -4.5377870544882693e-16  114.62389654970002
1674  3  15.3655056833  1.267325548799999  107.12193926420002
1675  3  15.3655056833  1.267325548799999  94.465141335000027
1676  3  13.170433442999999  2.534651097699999  117.2014112236
1677  3  13.170433442999999  2.534651097699999  104.54461329450002
1678  3  13.170433442999997  -4.5377870544882693e-16  90.714236810999992
1679  3  15.3655056833  1.267325548799999  100.79362530360002
1680  3  13.170433442999999  2.534651097699999  110.87292725510002
1681  1  13.170433442999997  -4.5377870544882693e-16  133.05208450500001
1682  1  13.170433442999997  -4.5377870544882693e-16  139.0906259276
1683  1  15.3655056833  1.267325548799999  143.13137161099999
1684  1  15.3655056833  1.267325548799999  149.17008032830003
1685  1  13.170433442999999  2.534651097699999  122.97263010430002
1686  1  13.170433442999999  2.534651097699999  129.01133882159999
1687  3  13.170433442999997  -4.5377870544882693e-16  127.28073494590001
1688  3  13.170433442999997  -4.5377870544882693e-16  144.86197548670003
1689  3  15.3655056833  1.267325548799999  137.36001820120001
1690  3  15.3655056833  1.267325548799999  124.70322027200002
1691  3  13.170433442999999  2.534651097699999  147.4394901606
1692  3  13.170433442999999  2.534651097699999  134.78269223149999
1693  3  13.170433442999997  -4.5377870544882693e-16  120.95231574800002
1694  3  15.3655056833  1.267325548799999  131.03170424059999
1695  3  13.170433442999999  2.534651097699999  141.11100619210001
1696  1  13.170433442999997  -4.5377870544882693e-16  163.29016344199999
1697  1  13.170433442999997  -4.5377870544882693e-16  169.32870486460001
1698  1  15.3655056833  1.267325548799999  173.369450548
1699  1  15.3655056833  1.267325548799999  179.40815926530004
1700  1  13.170433442999999  2.534651097699999  153.21070904129999
1701  1  13.170433442999999  2.534651097699999  159.2494177586
1702  3  13.170433442999997  -4.5377870544882693e-16  157.51881388289999
1703  3  13.170433442999997  -4.5377870544882693e-16  175.10005442369999
1704  3  15.3655056833  1.267325548799999  167.59809713819999
1705  3  15.3655056833  1.267325548799999  154.94129920899999
1706  3  13.170433442999999  2.534651097699999  177.67756909760001
1707  3  13.170433442999999  2.534651097699999  165.0207711685
1708  3  13.170433442999997  -4.5377870544882693e-16  151.19039468500003
1709  3  15.3655056833  1.267325548799999  161.2697831776
1710  3  13.170433442999999  2.534651097699999  171.34908512909999
1711  1  10.975361202999997  3.8019766469999992  12.099768757
1712  1  10.975361202999997  3.8019766469999992  18.138310179600001
1713  1  13.170433443299997  5.0693021957999989  22.179055863000002
1714  1  13.170433443299997  5.0693021957999989  28.217764580299999
1715  1  10.975361202999999  6.3366277446999986  2.0203143563000001
1716  1  10.975361202999999  6.3366277446999986  8.0590230736000006
1717  3  10.975361202999997  3.8019766469999992  6.3284191978999997
1718  3  10.975361202999997  3.8019766469999992  23.909659738700004
1719  3  13.170433443299997  5.0693021957999989  16.407702453200002
1720  3  13.170433443299997  5.0693021957999989  3.7509045240000005
1721  3  10.975361202999999  6.3366277446999986  26.487174412600002
1722  3  10.975361202999999  6.3366277446999986  13.8303764835
1723  3  10.975361202999997  3.8019766469999992  0
1724  3  13.170433443299997  5.0693021957999989  10.079388492600001
1725  3  10.975361202999999  6.3366277446999986  20.158690444100003
1726  1  10.975361202999997  3.8019766469999992  42.337847694000004
1727  1  10.975361202999997  3.8019766469999992  48.376389116600009
1728  1  13.170433443299997  5.0693021957999989  52.417134799999999
1729  1  13.170433443299997  5.0693021957999989  58.455843517299996
1730  1  10.975361202999999  6.3366277446999986  32.258393293300003
1731  1  10.975361202999999  6.3366277446999986  38.2971020106
1732  3  10.975361202999997  3.8019766469999992  36.566498134900009
1733  3  10.975361202999997  3.8019766469999992  54.147738675700005
1734  3  13.170433443299997  5.0693021957999989  46.6457813902
1735  3  13.170433443299997  5.0693021957999989  33.988983461000004
1736  3  10.975361202999999  6.3366277446999986  56.72525334960001
1737  3  10.975361202999999  6.3366277446999986  44.068455420500008
1738  3  10.975361202999997  3.8019766469999992  30.238078937000004
1739  3  13.170433443299997  5.0693021957999989  40.317467429600008
1740  3  10.975361202999999  6.3366277446999986  50.3967693811
1741  1  10.975361202999997  3.8019766469999992  72.575926631000016
1742  1  10.975361202999997  3.8019766469999992  78.614468053600021
1743  1  13.170433443299997  5.0693021957999989  82.655213737000011
1744  1  13.170433443299997  5.0693021957999989  88.693922454300008
1745  1  10.975361202999999  6.3366277446999986  62.496472230300007
1746  1  10.975361202999999  6.3366277446999986  68.535180947599997
1747  3  10.975361202999997  3.8019766469999992  66.804577071900013
1748  3  10.975361202999997  3.8019766469999992  84.385817612700023
1749  3  13.170433443299997  5.0693021957999989  76.883860327200011
1750  3  13.170433443299997  5.0693021957999989  64.227062398000001
1751  3  10.975361202999999  6.3366277446999986  86.963332286600007
1752  3  10.975361202999999  6.3366277446999986  74.306534357500013
1753  3  10.975361202999997  3.8019766469999992  60.476157874000009
1754  3  13.170433443299997  5.0693021957999989  70.555546366600012
1755  3  10.975361202999999  6.3366277446999986  80.634848318100012
1756  1  10.975361202999997  3.8019766469999992  102.814005568
1757  1  10.975361202999997  3.8019766469999992  108.8525469906
1758  1  13.170433443299997  5.0693021957999989  112.89329267400002
1759  1  13.170433443299997  5.0693021957999989  118.93200139130001
1760  1  10.975361202999999  6.3366277446999986  92.734551167300012
1761  1  10.975361202999999  6.3366277446999986  98.773259884600023
1762  3  10.975361202999997  3.8019766469999992  97.042656008900011
1763  3  10.975361202999997  3.8019766469999992  114.62389654970002
1764  3  13.170433443299997  5.0693021957999989  107.12193926420002
1765  3  13.170433443299997  5.0693021957999989  94.465141335000027
1766  3  10.975361202999999  6.3366277446999986  117.2014112236
1767  3  10.975361202999999  6.3366277446999986  104.54461329450002
1768  3  10.975361202999997  3.8019766469999992  90.714236810999992
1769  3  13.170433443299997  5.0693021957999989  100.79362530360002
1770  3  10.975361202999999  6.3366277446999986  110.87292725510002
1771  1  10.975361202999997  3.8019766469999992  133.05208450500001
1772  1  10.975361202999997  3.8019766469999992  139.0906259276
1773  1  13.170433443299997  5.0693021957999989  143.13137161099999
1774  1  13.170433443299997  5.0693021957999989  149.17008032830003
1775  1  10.975361202999999  6.3366277446999986  122.97263010430002
1776  1  10.975361202999999  6.3366277446999986  129.01133882159999
1777  3  10.975361202999997  3.8019766469999992  127.28073494590001
1778  3  10.975361202999997  3.8019766469999992  144.86197548670003
1779  3  13.170433443299997  5.0693021957999989  137.36001820120001
1780  3  13.170433443299997  5.0693021957999989  124.70322027200002
1781  3  10.975361202999999  6.3366277446999986  147.4394901606
1782  3  10.975361202999999  6.3366277446999986  134.78269223149999
1783  3  10.975361202999997  3.8019766469999992  120.95231574800002
1784  3  13.170433443299997  5.0693021957999989  131.03170424059999
1785  3  10.975361202999999  6.3366277446999986  141.11100619210001
1786  1  10.975361202999997  3.8019766469999992  163.29016344199999
1787  1  10.975361202999997  3.8019766469999992  169.32870486460001
1788  1  13.170433443299997  5.0693021957999989  173.369450548
1789  1  13.170433443299997  5.0693021957999989  179.40815926530004
1790  1  10.975361202999999  6.3366277446999986  153.21070904129999
1791  1  10.975361202999999  6.3366277446999986  159.2494177586
1792  3  10.975361202999997  3.8019766469999992  157.51881388289999
1793  3  10.975361202999997  3.8019766469999992  175.10005442369999
1794  3  13.170433443299997  5.0693021957999989  167.59809713819999
1795  3  13.170433443299997  5.0693021957999989  154.94129920899999
1796  3  10.975361202999999  6.3366277446999986  177.67756909760001
1797  3  10.975361202999999  6.3366277446999986  165.0207711685
1798  3  10.975361202999997  3.8019766469999992  151.19039468500003
1799  3  13.170433443299997  5.0693021957999989  161.2697831776
1800  3  10.975361202999999  6.3366277446999986  171.34908512909999
1801  1  8.7802889629999967  7.6039532939999992  12.099768757
1802  1  8.7802889629999967  7.6039532939999992  18.138310179600001
1803  1  10.9753612033  8.8712788427999989  22.179055863000002
1804  1  10.9753612033  8.8712788427999989  28.217764580299999
1805  1  8.7802889629999985  10.138604391699998  2.0203143563000001
1806  1  8.7802889629999985  10.138604391699998  8.0590230736000006
1807  3  8.7802889629999967  7.6039532939999992  6.3284191978999997
1808  3  8.7802889629999967  7.6039532939999992  23.909659738700004
1809  3  10.9753612033  8.8712788427999989  16.407702453200002
1810  3  10.9753612033  8.8712788427999989  3.7509045240000005
1811  3  8.7802889629999985  10.138604391699998  26.487174412600002
1812  3  8.7802889629999985  10.138604391699998  13.8303764835
1813  3  8.7802889629999967  7.6039532939999992  0
1814  3  10.9753612033  8.8712788427999989  10.079388492600001
1815  3  8.7802889629999985  10.138604391699998  20.158690444100003
1816  1  8.7802889629999967  7.6039532939999992  42.337847694000004
1817  1  8.7802889629999967  7.6039532939999992  48.376389116600009
1818  1  10.9753612033  8.8712788427999989  52.417134799999999
1819  1  10.9753612033  8.8712788427999989  58.455843517299996
1820  1  8.7802889629999985  10.138604391699998  32.258393293300003
1821  1  8.7802889629999985  10.138604391699998  38.2971020106
1822  3  8.7802889629999967  7.6039532939999992  36.566498134900009
1823  3  8.7802889629999967  7.6039532939999992  54.147738675700005
1824  3  10.9753612033  8.8712788427999989  46.6457813902
1825  3  10.9753612033  8.8712788427999989  33.988983461000004
1826  3  8.7802889629999985  10.138604391699998  56.72525334960001
1827  3  8.7802889629999985  10.138604391699998  44.068455420500008
1828  3  8.7802889629999967  7.6039532939999992  30.238078937000004
1829  3  10.9753612033  8.8712788427999989  40.317467429600008
1830  3  8.7802889629999985  10.138604391699998  50.3967693811
1831  1  8.7802889629999967  7.6039532939999992  72.575926631000016
1832  1  8.7802889629999967  7.6039532939999992  78.614468053600021
1833  1  10.9753612033  8.8712788427999989  82.655213737000011
1834  1  10.9753612033  8.8712788427999989  88.693922454300008
1835  1  8.7802889629999985  10.138604391699998  62.496472230300007
1836  1  8.7802889629999985  10.138604391699998  68.535180947599997
1837  3  8.7802889629999967  7.6039532939999992  66.804577071900013
1838  3  8.7802889629999967  7.6039532939999992  84.385817612700023
1839  3  10.9753612033  8.8712788427999989  76.883860327200011
1840  3  10.9753612033  8.8712788427999989  64.227062398000001
1841  3  8.7802889629999985  10.138604391699998  86.963332286600007
1842  3  8.7802889629999985  10.138604391699998  74.306534357500013
1843  3  8.7802889629999967  7.6039532939999992  60.476157874000009
1844  3  10.9753612033  8.8712788427999989  70.555546366600012
1845  3  8.7802889629999985  10.138604391699998  80.634848318100012
1846  1  8.7802889629999967  7.6039532939999992  102.814005568
1847  1  8.7802889629999967  7.6039532939999992  108.8525469906
1848  1  10.9753612033  8.8712788427999989  112.89329267400002
1849  1  10.9753612033  8.8712788427999989  118.93200139130001
1850  1  8.7802889629999985  10.138604391699998  92.734551167300012
1851  1  8.7802889629999985  10.138604391699998  98.773259884600023
1852  3  8.7802889629999967  7.6039532939999992  97.042656008900011
1853  3  8.7802889629999967  7.6039532939999992  114.62389654970002
1854  3  10.9753612033  8.8712788427999989  107.12193926420002
1855  3  10.9753612033  8.8712788427999989  94.465141335000027
1856  3  8.7802889629999985  10.138604391699998  117.2014112236
1857  3  8.7802889629999985  10.138604391699998  104.54461329450002
1858  3  8.7802889629999967  7.6039532939999992  90.714236810999992
1859  3  10.9753612033  8.8712788427999989  100.79362530360002
1860  3  8.7802889629999985  10.138604391699998  110.87292725510002
1861  1  8.7802889629999967  7.6039532939999992  133.05208450500001
1862  1  8.7802889629999967  7.6039532939999992  139.0906259276
1863  1  10.9753612033  8.8712788427999989  143.13137161099999
1864  1  10.9753612033  8.8712788427999989  149.17008032830003
1865  1  8.7802889629999985  10.138604391699998  122.97263010430002
1866  1  8.7802889629999985  10.138604391699998  129.01133882159999
1867  3  8.7802889629999967  7.6039532939999992  127.28073494590001
1868  3  8.7802889629999967  7.6039532939999992  144.86197548670003
1869  3  10.9753612033  8.8712788427999989  137.36001820120001
1870  3  10.9753612033  8.8712788427999989  124.70322027200002
1871  3  8.7802889629999985  10.138604391699998  147.4394901606
1872  3  8.7802889629999985  10.138604391699998  134.78269223149999
1873  3  8.7802889629999967  7.6039532939999992  120.95231574800002
1874  3  10.9753612033  8.8712788427999989  131.03170424059999
1875  3  8.7802889629999985  10.138604391699998  141.11100619210001
1876  1  8.7802889629999967  7.6039532939999992  163.29016344199999
1877  1  8.7802889629999967  7.6039532939999992  169.32870486460001
1878  1  10.9753612033  8.8712788427999989  173.369450548
1879  1  10.9753612033  8.8712788427999989  179.40815926530004
1880  1  8.7802889629999985  10.138604391699998  153.21070904129999
1881  1  8.7802889629999985  10.138604391699998  159.2494177586
1882  3  8.7802889629999967  7.6039532939999992  157.51881388289999
1883  3  8.7802889629999967  7.6039532939999992  175.10005442369999
1884  3  10.9753612033  8.8712788427999989  167.59809713819999
1885  3  10.9753612033  8.8712788427999989  154.94129920899999
1886  3  8.7802889629999985  10.138604391699998  177.67756909760001
1887  3  8.7802889629999985  10.138604391699998  165.0207711685
1888  3  8.7802889629999967  7.6039532939999992  151.19039468500003
1889  3  10.9753612033  8.8712788427999989  161.2697831776
1890  3  8.7802889629999985  10.138604391699998  171.34908512909999
1891  1  6.5852167229999985  11.405929940999997  12.099768757
1892  1  6.5852167229999985  11.405929940999997  18.138310179600001
1893  1  8.7802889632999968  12.673255489799997  22.179055863000002
1894  1  8.7802889632999968  12.673255489799997  28.217764580299999
1895  1  6.5852167229999994  13.940581038699998  2.0203143563000001
1896  1  6.5852167229999994  13.940581038699998  8.0590230736000006
1897  3  6.5852167229999985  11.405929940999997  6.3284191978999997
1898  3  6.5852167229999985  11.405929940999997  23.909659738700004
1899  3  8.7802889632999968  12.673255489799997  16.407702453200002
1900  3  8.7802889632999968  12.673255489799997  3.7509045240000005
1901  3  6.5852167229999994  13.940581038699998  26.487174412600002
1902  3  6.5852167229999994  13.940581038699998  13.8303764835
1903  3  6.5852167229999985  11.405929940999997  0
1904  3  8.7802889632999968  12.673255489799997  10.079388492600001
1905  3  6.5852167229999994  13.940581038699998  20.158690444100003
1906  1  6.5852167229999985  11.405929940999997  42.337847694000004
1907  1  6.5852167229999985  11.405929940999997  48.376389116600009
1908  1  8.7802889632999968  12.673255489799997  52.417134799999999
1909  1  8.7802889632999968  12.673255489799997  58.455843517299996
1910  1  6.5852167229999994  13.940581038699998  32.258393293300003
1911  1  6.5852167229999994  13.940581038699998  38.2971020106
1912  3  6.5852167229999985  11.405929940999997  36.566498134900009
1913  3  6.5852167229999985  11.405929940999997  54.147738675700005
1914  3  8.7802889632999968  12.673255489799997  46.6457813902
1915  3  8.7802889632999968  12.673255489799997  33.988983461000004
1916  3  6.5852167229999994  13.940581038699998  56.72525334960001
1917  3  6.5852167229999994  13.940581038699998  44.068455420500008
1918  3  6.5852167229999985  11.405929940999997  30.238078937000004
1919  3  8.7802889632999968  12.673255489799997  40.317467429600008
1920  3  6.5852167229999994  13.940581038699998  50.3967693811
1921  1  6.5852167229999985  11.405929940999997  72.575926631000016
1922  1  6.5852167229999985  11.405929940999997  78.614468053600021
1923  1  8.7802889632999968  12.673255489799997  82.655213737000011
1924  1  8.7802889632999968  12.673255489799997  88.693922454300008
1925  1  6.5852167229999994  13.940581038699998  62.496472230300007
1926  1  6.5852167229999994  13.940581038699998  68.535180947599997
1927  3  6.5852167229999985  11.405929940999997  66.804577071900013
1928  3  6.5852167229999985  11.405929940999997  84.385817612700023
1929  3  8.7802889632999968  12.673255489799997  76.883860327200011
1930  3  8.7802889632999968  12.673255489799997  64.227062398000001
1931  3  6.5852167229999994  13.940581038699998  86.963332286600007
1932  3  6.5852167229999994  13.940581038699998  74.306534357500013
1933  3  6.5852167229999985  11.405929940999997  60.476157874000009
1934  3  8.7802889632999968  12.673255489799997  70.555546366600012
1935  3  6.5852167229999994  13.940581038699998  80.634848318100012
1936  1  6.5852167229999985  11.405929940999997  102.814005568
1937  1  6.5852167229999985  11.405929940999997  108.8525469906
1938  1  8.7802889632999968  12.673255489799997  112.89329267400002
1939  1  8.7802889632999968  12.673255489799997  118.93200139130001
1940  1  6.5852167229999994  13.940581038699998  92.734551167300012
1941  1  6.5852167229999994  13.940581038699998  98.773259884600023
1942  3  6.5852167229999985  11.405929940999997  97.042656008900011
1943  3  6.5852167229999985  11.405929940999997  114.62389654970002
1944  3  8.7802889632999968  12.673255489799997  107.12193926420002
1945  3  8.7802889632999968  12.673255489799997  94.465141335000027
1946  3  6.5852167229999994  13.940581038699998  117.2014112236
1947  3  6.5852167229999994  13.940581038699998  104.54461329450002
1948  3  6.5852167229999985  11.405929940999997  90.714236810999992
1949  3  8.7802889632999968  12.673255489799997  100.79362530360002
1950  3  6.5852167229999994  13.940581038699998  110.87292725510002
1951  1  6.5852167229999985  11.405929940999997  133.05208450500001
1952  1  6.5852167229999985  11.405929940999997  139.0906259276
1953  1  8.7802889632999968  12.673255489799997  143.13137161099999
1954  1  8.7802889632999968  12.673255489799997  149.17008032830003
1955  1  6.5852167229999994  13.940581038699998  122.97263010430002
1956  1  6.5852167229999994  13.940581038699998  129.01133882159999
1957  3  6.5852167229999985  11.405929940999997  127.28073494590001
1958  3  6.5852167229999985  11.405929940999997  144.86197548670003
1959  3  8.7802889632999968  12.673255489799997  137.36001820120001
1960  3  8.7802889632999968  12.673255489799997  124.70322027200002
1961  3  6.5852167229999994  13.940581038699998  147.4394901606
1962  3  6.5852167229999994  13.940581038699998  134.78269223149999
1963  3  6.5852167229999985  11.405929940999997  120.95231574800002
1964  3  8.7802889632999968  12.673255489799997  131.03170424059999
1965  3  6.5852167229999994  13.940581038699998  141.11100619210001
1966  1  6.5852167229999985  11.405929940999997  163.29016344199999
1967  1  6.5852167229999985  11.405929940999997  169.32870486460001
1968  1  8.7802889632999968  12.673255489799997  173.369450548
1969  1  8.7802889632999968  12.673255489799997  179.40815926530004
1970  1  6.5852167229999994  13.940581038699998  153.21070904129999
1971  1  6.5852167229999994  13.940581038699998  159.2494177586
1972  3  6.5852167229999985  11.405929940999997  157.51881388289999
1973  3  6.5852167229999985  11.405929940999997  175.10005442369999
1974  3  8.7802889632999968  12.673255489799997  167.59809713819999
1975  3  8.7802889632999968  12.673255489799997  154.94129920899999
1976  3  6.5852167229999994  13.940581038699998  177.67756909760001
1977  3  6.5852167229999994  13.940581038699998  165.0207711685
1978  3  6.5852167229999985  11.405929940999997  151.19039468500003
1979  3  8.7802889632999968  12.673255489799997  161.2697831776
1980  3  6.5852167229999994  13.940581038699998  171.34908512909999
1981  1  4.3901444829999985  15.207906587999998  12.099768757
1982  1  4.3901444829999985  15.207906587999998  18.138310179600001
1983  1  6.5852167233000021  16.475232136799995  22.179055863000002
1984  1  6.5852167233000021  16.475232136799995  28.217764580299999
1985  1  4.3901444830000003  17.742557685699996  2.0203143563000001
1986  1  4.3901444830000003  17.742557685699996  8.0590230736000006
1987  3  4.3901444829999985  15.207906587999998  6.3284191978999997
1988  3  4.3901444829999985  15.207906587999998  23.909659738700004
1989  3  6.5852167233000021  16.475232136799995  16.407702453200002
1990  3  6.5852167233000021  16.475232136799995  3.7509045240000005
1991  3  4.3901444830000003  17.742557685699996  26.487174412600002
1992  3  4.3901444830000003  17.742557685699996  13.8303764835
1993  3  4.3901444829999985  15.207906587999998  0
1994  3  6.5852167233000021  16.475232136799995  10.079388492600001
1995  3  4.3901444830000003  17.742557685699996  20.158690444100003
1996  1  4.3901444829999985  15.207906587999998  42.337847694000004
1997  1  4.3901444829999985  15.207906587999998  48.376389116600009
1998  1  6.5852167233000021  16.475232136799995  52.417134799999999
1999  1  6.5852167233000021  16.475232136799995  58.455843517299996
2000  1  4.3901444830000003  17.742557685699996  32.258393293300003
2001  1  4.3901444830000003  17.742557685699996  38.2971020106
2002  3  4.3901444829999985  15.207906587999998  36.566498134900009
2003  3  4.3901444829999985  15.207906587999998  54.147738675700005
2004  3  6.5852167233000021  16.475232136799995  46.6457813902
2005  3  6.5852167233000021  16.475232136799995  33.988983461000004
2006  3  4.3901444830000003  17.742557685699996  56.72525334960001
2007  3  4.3901444830000003  17.742557685699996  44.068455420500008
2008  3  4.3901444829999985  15.207906587999998  30.238078937000004
2009  3  6.5852167233000021  16.475232136799995  40.317467429600008
2010  3  4.3901444830000003  17.742557685699996  50.3967693811
2011  1  4.3901444829999985  15.207906587999998  72.575926631000016
2012  1  4.3901444829999985  15.207906587999998  78.614468053600021
2013  1  6.5852167233000021  16.475232136799995  82.655213737000011
2014  1  6.5852167233000021  16.475232136799995  88.693922454300008
2015  1  4.3901444830000003  17.742557685699996  62.496472230300007
2016  1  4.3901444830000003  17.742557685699996  68.535180947599997
2017  3  4.3901444829999985  15.207906587999998  66.804577071900013
2018  3  4.3901444829999985  15.207906587999998  84.385817612700023
2019  3  6.5852167233000021  16.475232136799995  76.883860327200011
2020  3  6.5852167233000021  16.475232136799995  64.227062398000001
2021  3  4.3901444830000003  17.742557685699996  86.963332286600007
2022  3  4.3901444830000003  17.742557685699996  74.306534357500013
2023  3  4.3901444829999985  15.207906587999998  60.476157874000009
2024  3  6.5852167233000021  16.475232136799995  70.555546366600012
2025  3  4.3901444830000003  17.742557685699996  80.634848318100012
2026  1  4.3901444829999985  15.207906587999998  102.814005568
2027  1  4.3901444829999985  15.207906587999998  108.8525469906
2028  1  6.5852167233000021  16.475232136799995  112.89329267400002
2029  1  6.5852167233000021  16.475232136799995  118.93200139130001
2030  1  4.3901444830000003  17.742557685699996  92.734551167300012
2031  1  4.3901444830000003  17.742557685699996  98.773259884600023
2032  3  4.3901444829999985  15.207906587999998  97.042656008900011
2033  3  4.3901444829999985  15.207906587999998  114.62389654970002
2034  3  6.5852167233000021  16.475232136799995  107.12193926420002
2035  3  6.5852167233000021  16.475232136799995  94.465141335000027
2036  3  4.3901444830000003  17.742557685699996  117.2014112236
2037  3  4.3901444830000003  17.742557685699996  104.54461329450002
2038  3  4.3901444829999985  15.207906587999998  90.714236810999992
2039  3  6.5852167233000021  16.475232136799995  100.79362530360002
2040  3  4.3901444830000003  17.742557685699996  110.87292725510002
2041  1  4.3901444829999985  15.207906587999998  133.05208450500001
2042  1  4.3901444829999985  15.207906587999998  139.0906259276
2043  1  6.5852167233000021  16.475232136799995  143.13137161099999
2044  1  6.5852167233000021  16.475232136799995  149.17008032830003
2045  1  4.3901444830000003  17.742557685699996  122.97263010430002
2046  1  4.3901444830000003  17.742557685699996  129.01133882159999
2047  3  4.3901444829999985  15.207906587999998  127.28073494590001
2048  3  4.3901444829999985  15.207906587999998  144.86197548670003
2049  3  6.5852167233000021  16.475232136799995  137.36001820120001
2050  3  6.5852167233000021  16.475232136799995  124.70322027200002
2051  3  4.3901444830000003  17.742557685699996  147.4394901606
2052  3  4.3901444830000003  17.742557685699996  134.78269223149999
2053  3  4.3901444829999985  15.207906587999998  120.95231574800002
2054  3  6.5852167233000021  16.475232136799995  131.03170424059999
2055  3  4.3901444830000003  17.742557685699996  141.11100619210001
2056  1  4.3901444829999985  15.207906587999998  163.29016344199999
2057  1  4.3901444829999985  15.207906587999998  169.32870486460001
2058  1  6.5852167233000021  16.475232136799995  173.369450548
2059  1  6.5852167233000021  16.475232136799995  179.40815926530004
2060  1  4.3901444830000003  17.742557685699996  153.21070904129999
2061  1  4.3901444830000003  17.742557685699996  159.2494177586
2062  3  4.3901444829999985  15.207906587999998  157.51881388289999
2063  3  4.3901444829999985  15.207906587999998  175.10005442369999
2064  3  6.5852167233000021  16.475232136799995  167.59809713819999
2065  3  6.5852167233000021  16.475232136799995  154.94129920899999
2066  3  4.3901444830000003  17.742557685699996  177.67756909760001
2067  3  4.3901444830000003  17.742557685699996  165.0207711685
2068  3  4.3901444829999985  15.207906587999998  151.19039468500003
2069  3  6.5852167233000021  16.475232136799995  161.2697831776
2070  3  4.3901444830000003  17.742557685699996  171.34908512909999
2071  1  2.1950722429999989  19.009883234999997  12.099768757
2072  1  2.1950722429999989  19.009883234999997  18.138310179600001
2073  1  4.3901444832999985  20.277208783799995  22.179055863000002
2074  1  4.3901444832999985  20.277208783799995  28.217764580299999
2075  1  2.1950722430000011  21.544534332699993  2.0203143563000001
2076  1  2.1950722430000011  21.544534332699993  8.0590230736000006
2077  3  2.1950722429999989  19.009883234999997  6.3284191978999997
2078  3  2.1950722429999989  19.009883234999997  23.909659738700004
2079  3  4.3901444832999985  20.277208783799995  16.407702453200002
2080  3  4.3901444832999985  20.277208783799995  3.7509045240000005
2081  3  2.1950722430000011  21.544534332699993  26.487174412600002
2082  3  2.1950722430000011  21.544534332699993  13.8303764835
2083  3  2.1950722429999989  19.009883234999997  0
2084  3  4.3901444832999985  20.277208783799995  10.079388492600001
2085  3  2.1950722430000011  21.544534332699993  20.158690444100003
2086  1  2.1950722429999989  19.009883234999997  42.337847694000004
2087  1  2.1950722429999989  19.009883234999997  48.376389116600009
2088  1  4.3901444832999985  20.277208783799995  52.417134799999999
2089  1  4.3901444832999985  20.277208783799995  58.455843517299996
2090  1  2.1950722430000011  21.544534332699993  32.258393293300003
2091  1  2.1950722430000011  21.544534332699993  38.2971020106
2092  3  2.1950722429999989  19.009883234999997  36.566498134900009
2093  3  2.1950722429999989  19.009883234999997  54.147738675700005
2094  3  4.3901444832999985  20.277208783799995  46.6457813902
2095  3  4.3901444832999985  20.277208783799995  33.988983461000004
2096  3  2.1950722430000011  21.544534332699993  56.72525334960001
2097  3  2.1950722430000011  21.544534332699993  44.068455420500008
2098  3  2.1950722429999989  19.009883234999997  30.238078937000004
2099  3  4.3901444832999985  20.277208783799995  40.317467429600008
2100  3  2.1950722430000011  21.544534332699993  50.3967693811
2101  1  2.1950722429999989  19.009883234999997  72.575926631000016
2102  1  2.1950722429999989  19.009883234999997  78.614468053600021
2103  1  4.3901444832999985  20.277208783799995  82.655213737000011
2104  1  4.3901444832999985  20.277208783799995  88.693922454300008
2105  1  2.1950722430000011  21.544534332699993  62.496472230300007
2106  1  2.1950722430000011  21.544534332699993  68.535180947599997
2107  3  2.1950722429999989  19.009883234999997  66.804577071900013
2108  3  2.1950722429999989  19.009883234999997  84.385817612700023
2109  3  4.3901444832999985  20.277208783799995  76.883860327200011
2110  3  4.3901444832999985  20.277208783799995  64.227062398000001
2111  3  2.1950722430000011  21.544534332699993  86.963332286600007
2112  3  2.1950722430000011  21.544534332699993  74.306534357500013
2113  3  2.1950722429999989  19.009883234999997  60.476157874000009
2114  3  4.3901444832999985  20.277208783799995  70.555546366600012
2115  3  2.1950722430000011  21.544534332699993  80.634848318100012
2116  1  2.1950722429999989  19.009883234999997  102.814005568
2117  1  2.1950722429999989  19.009883234999997  108.8525469906
2118  1  4.3901444832999985  20.277208783799995  112.89329267400002
2119  1  4.3901444832999985  20.277208783799995  118.93200139130001
2120  1  2.1950722430000011  21.544534332699993  92.734551167300012
2121  1  2.1950722430000011  21.544534332699993  98.773259884600023
2122  3  2.1950722429999989  19.009883234999997  97.042656008900011
2123  3  2.1950722429999989  19.009883234999997  114.62389654970002
2124  3  4.3901444832999985  20.277208783799995  107.12193926420002
2125  3  4.3901444832999985  20.277208783799995  94.465141335000027
2126  3  2.1950722430000011  21.544534332699993  117.2014112236
2127  3  2.1950722430000011  21.544534332699993  104.54461329450002
2128  3  2.1950722429999989  19.009883234999997  90.714236810999992
2129  3  4.3901444832999985  20.277208783799995  100.79362530360002
2130  3  2.1950722430000011  21.544534332699993  110.87292725510002
2131  1  2.1950722429999989  19.009883234999997  133.05208450500001
2132  1  2.1950722429999989  19.009883234999997  139.0906259276
2133  1  4.3901444832999985  20.277208783799995  143.13137161099999
2134  1  4.3901444832999985  20.277208783799995  149.17008032830003
2135  1  2.1950722430000011  21.544534332699993  122.97263010430002
2136  1  2.1950722430000011  21.544534332699993  129.01133882159999
2137  3  2.1950722429999989  19.009883234999997  127.28073494590001
2138  3  2.1950722429999989  19.009883234999997  144.86197548670003
2139  3  4.3901444832999985  20.277208783799995  137.36001820120001
2140  3  4.3901444832999985  20.277208783799995  124.70322027200002
2141  3  2.1950722430000011  21.544534332699993  147.4394901606
2142  3  2.1950722430000011  21.544534332699993  134.78269223149999
2143  3  2.1950722429999989  19.009883234999997  120.95231574800002
2144  3  4.3901444832999985  20.277208783799995  131.03170424059999
2145  3  2.1950722430000011  21.544534332699993  141.11100619210001
2146  1  2.1950722429999989  19.009883234999997  163.29016344199999
2147  1  2.1950722429999989  19.009883234999997  169.32870486460001
2148  1  4.3901444832999985  20.277208783799995  173.369450548
2149  1  4.3901444832999985  20.277208783799995  179.40815926530004
2150  1  2.1950722430000011  21.544534332699993  153.21070904129999
2151  1  2.1950722430000011  21.544534332699993  159.2494177586
2152  3  2.1950722429999989  19.009883234999997  157.51881388289999
2153  3  2.1950722429999989  19.009883234999997  175.10005442369999
2154  3  4.3901444832999985  20.277208783799995  167.59809713819999
2155  3  4.3901444832999985  20.277208783799995  154.94129920899999
2156  3  2.1950722430000011  21.544534332699993  177.67756909760001
2157  3  2.1950722430000011  21.544534332699993  165.0207711685
2158  3  2.1950722429999989  19.009883234999997  151.19039468500003
2159  3  4.3901444832999985  20.277208783799995  161.2697831776
2160  3  2.1950722430000011  21.544534332699993  171.34908512909999
2161  1  17.560577923999997  -6.0503827393176931e-16  12.099768757
2162  1  17.560577923999997  -6.0503827393176931e-16  18.138310179600001
2163  1  19.755650164299993  1.2673255487999988  22.179055863000002
2164  1  19.755650164299993  1.2673255487999988  28.217764580299999
2165  1  17.560577923999997  2.534651097699999  2.0203143563000001
2166  1  17.560577923999997  2.534651097699999  8.0590230736000006
2167  3  17.560577923999997  -6.0503827393176931e-16  6.3284191978999997
2168  3  17.560577923999997  -6.0503827393176931e-16  23.909659738700004
2169  3  19.755650164299993  1.2673255487999988  16.407702453200002
2170  3  19.755650164299993  1.2673255487999988  3.7509045240000005
2171  3  17.560577923999997  2.534651097699999  26.487174412600002
2172  3  17.560577923999997  2.534651097699999  13.8303764835
2173  3  17.560577923999997  -6.0503827393176931e-16  0
2174  3  19.755650164299993  1.2673255487999988  10.079388492600001
2175  3  17.560577923999997  2.534651097699999  20.158690444100003
2176  1  17.560577923999997  -6.0503827393176931e-16  42.337847694000004
2177  1  17.560577923999997  -6.0503827393176931e-16  48.376389116600009
2178  1  19.755650164299993  1.2673255487999988  52.417134799999999
2179  1  19.755650164299993  1.2673255487999988  58.455843517299996
2180  1  17.560577923999997  2.534651097699999  32.258393293300003
2181  1  17.560577923999997  2.534651097699999  38.2971020106
2182  3  17.560577923999997  -6.0503827393176931e-16  36.566498134900009
2183  3  17.560577923999997  -6.0503827393176931e-16  54.147738675700005
2184  3  19.755650164299993  1.2673255487999988  46.6457813902
2185  3  19.755650164299993  1.2673255487999988  33.988983461000004
2186  3  17.560577923999997  2.534651097699999  56.72525334960001
2187  3  17.560577923999997  2.534651097699999  44.068455420500008
2188  3  17.560577923999997  -6.0503827393176931e-16  30.238078937000004
2189  3  19.755650164299993  1.2673255487999988  40.317467429600008
2190  3  17.560577923999997  2.534651097699999  50.3967693811
2191  1  17.560577923999997  -6.0503827393176931e-16  72.575926631000016
2192  1  17.560577923999997  -6.0503827393176931e-16  78.614468053600021
2193  1  19.755650164299993  1.2673255487999988  82.655213737000011
2194  1  19.755650164299993  1.2673255487999988  88.693922454300008
2195  1  17.560577923999997  2.534651097699999  62.496472230300007
2196  1  17.560577923999997  2.534651097699999  68.535180947599997
2197  3  17.560577923999997  -6.0503827393176931e-16  66.804577071900013
2198  3  17.560577923999997  -6.0503827393176931e-16  84.385817612700023
2199  3  19.755650164299993  1.2673255487999988  76.883860327200011
2200  3  19.755650164299993  1.2673255487999988  64.227062398000001
2201  3  17.560577923999997  2.534651097699999  86.963332286600007
2202  3  17.560577923999997  2.534651097699999  74.306534357500013
2203  3  17.560577923999997  -6.0503827393176931e-16  60.476157874000009
2204  3  19.755650164299993  1.2673255487999988  70.555546366600012
2205  3  17.560577923999997  2.534651097699999  80.634848318100012
2206  1  17.560577923999997  -6.0503827393176931e-16  102.814005568
2207  1  17.560577923999997  -6.0503827393176931e-16  108.8525469906
2208  1  19.755650164299993  1.2673255487999988  112.89329267400002
2209  1  19.755650164299993  1.2673255487999988  118.93200139130001
2210  1  17.560577923999997  2.534651097699999  92.734551167300012
2211  1  17.560577923999997  2.534651097699999  98.773259884600023
2212  3  17.560577923999997  -6.0503827393176931e-16  97.042656008900011
2213  3  17.560577923999997  -6.0503827393176931e-16  114.62389654970002
2214  3  19.755650164299993  1.2673255487999988  107.12193926420002
2215  3  19.755650164299993  1.2673255487999988  94.465141335000027
2216  3  17.560577923999997  2.534651097699999  117.2014112236
2217  3  17.560577923999997  2.534651097699999  104.54461329450002
2218  3  17.560577923999997  -6.0503827393176931e-16  90.714236810999992
2219  3  19.755650164299993  1.2673255487999988  100.79362530360002
2220  3  17.560577923999997  2.534651097699999  110.87292725510002
2221  1  17.560577923999997  -6.0503827393176931e-16  133.05208450500001
2222  1  17.560577923999997  -6.0503827393176931e-16  139.0906259276
2223  1  19.755650164299993  1.2673255487999988  143.13137161099999
2224  1  19.755650164299993  1.2673255487999988  149.17008032830003
2225  1  17.560577923999997  2.534651097699999  122.97263010430002
2226  1  17.560577923999997  2.534651097699999  129.01133882159999
2227  3  17.560577923999997  -6.0503827393176931e-16  127.28073494590001
2228  3  17.560577923999997  -6.0503827393176931e-16  144.86197548670003
2229  3  19.755650164299993  1.2673255487999988  137.36001820120001
2230  3  19.755650164299993  1.2673255487999988  124.70322027200002
2231  3  17.560577923999997  2.534651097699999  147.4394901606
2232  3  17.560577923999997  2.534651097699999  134.78269223149999
2233  3  17.560577923999997  -6.0503827393176931e-16  120.95231574800002
2234  3  19.755650164299993  1.2673255487999988  131.03170424059999
2235  3  17.560577923999997  2.534651097699999  141.11100619210001
2236  1  17.560577923999997  -6.0503827393176931e-16  163.29016344199999
2237  1  17.560577923999997  -6.0503827393176931e-16  169.32870486460001
2238  1  19.755650164299993  1.2673255487999988  173.369450548
2239  1  19.755650164299993  1.2673255487999988  179.40815926530004
2240  1  17.560577923999997  2.534651097699999  153.21070904129999
2241  1  17.560577923999997  2.534651097699999  159.2494177586
2242  3  17.560577923999997  -6.0503827393176931e-16  157.51881388289999
2243  3  17.560577923999997  -6.0503827393176931e-16  175.10005442369999
2244  3  19.755650164299993  1.2673255487999988  167.59809713819999
2245  3  19.755650164299993  1.2673255487999988  154.94129920899999
2246  3  17.560577923999997  2.534651097699999  177.67756909760001
2247  3  17.560577923999997  2.534651097699999  165.0207711685
2248  3  17.560577923999997  -6.0503827393176931e-16  151.19039468500003
2249  3  19.755650164299993  1.2673255487999988  161.2697831776
2250  3  17.560577923999997  2.534651097699999  171.34908512909999
2251  1  15.365505683999999  3.8019766469999992  12.099768757
2252  1  15.365505683999999  3.8019766469999992  18.138310179600001
2253  1  17.560577924299992  5.0693021957999989  22.179055863000002
2254  1  17.560577924299992  5.0693021957999989  28.217764580299999
2255  1  15.365505683999999  6.3366277446999986  2.0203143563000001
2256  1  15.365505683999999  6.3366277446999986  8.0590230736000006
2257  3  15.365505683999999  3.8019766469999992  6.3284191978999997
2258  3  15.365505683999999  3.8019766469999992  23.909659738700004
2259  3  17.560577924299992  5.0693021957999989  16.407702453200002
2260  3  17.560577924299992  5.0693021957999989  3.7509045240000005
2261  3  15.365505683999999  6.3366277446999986  26.487174412600002
2262  3  15.365505683999999  6.3366277446999986  13.8303764835
2263  3  15.365505683999999  3.8019766469999992  0
2264  3  17.560577924299992  5.0693021957999989  10.079388492600001
2265  3  15.365505683999999  6.3366277446999986  20.158690444100003
2266  1  15.365505683999999  3.8019766469999992  42.337847694000004
2267  1  15.365505683999999  3.8019766469999992  48.376389116600009
2268  1  17.560577924299992  5.0693021957999989  52.417134799999999
2269  1  17.560577924299992  5.0693021957999989  58.455843517299996
2270  1  15.365505683999999  6.3366277446999986  32.258393293300003
2271  1  15.365505683999999  6.3366277446999986  38.2971020106
2272  3  15.365505683999999  3.8019766469999992  36.566498134900009
2273  3  15.365505683999999  3.8019766469999992  54.147738675700005
2274  3  17.560577924299992  5.0693021957999989  46.6457813902
2275  3  17.560577924299992  5.0693021957999989  33.988983461000004
2276  3  15.365505683999999  6.3366277446999986  56.72525334960001
2277  3  15.365505683999999  6.3366277446999986  44.068455420500008
2278  3  15.365505683999999  3.8019766469999992  30.238078937000004
2279  3  17.560577924299992  5.0693021957999989  40.317467429600008
2280  3  15.365505683999999  6.3366277446999986  50.3967693811
2281  1  15.365505683999999  3.8019766469999992  72.575926631000016
2282  1  15.365505683999999  3.8019766469999992  78.614468053600021
2283  1  17.560577924299992  5.0693021957999989  82.655213737000011
2284  1  17.560577924299992  5.0693021957999989  88.693922454300008
2285  1  15.365505683999999  6.3366277446999986  62.496472230300007
2286  1  15.365505683999999  6.3366277446999986  68.535180947599997
2287  3  15.365505683999999  3.8019766469999992  66.804577071900013
2288  3  15.365505683999999  3.8019766469999992  84.385817612700023
2289  3  17.560577924299992  5.0693021957999989  76.883860327200011
2290  3  17.560577924299992  5.0693021957999989  64.227062398000001
2291  3  15.365505683999999  6.3366277446999986  86.963332286600007
2292  3  15.365505683999999  6.3366277446999986  74.306534357500013
2293  3  15.365505683999999  3.8019766469999992  60.476157874000009
2294  3  17.560577924299992  5.0693021957999989  70.555546366600012
2295  3  15.365505683999999  6.3366277446999986  80.634848318100012
2296  1  15.365505683999999  3.8019766469999992  102.814005568
2297  1  15.365505683999999  3.8019766469999992  108.8525469906
2298  1  17.560577924299992  5.0693021957999989  112.89329267400002
2299  1  17.560577924299992  5.0693021957999989  118.93200139130001
2300  1  15.365505683999999  6.3366277446999986  92.734551167300012
2301  1  15.365505683999999  6.3366277446999986  98.773259884600023
2302  3  15.365505683999999  3.8019766469999992  97.042656008900011
2303  3  15.365505683999999  3.8019766469999992  114.62389654970002
2304  3  17.560577924299992  5.0693021957999989  107.12193926420002
2305  3  17.560577924299992  5.0693021957999989  94.465141335000027
2306  3  15.365505683999999  6.3366277446999986  117.2014112236
2307  3  15.365505683999999  6.3366277446999986  104.54461329450002
2308  3  15.365505683999999  3.8019766469999992  90.714236810999992
2309  3  17.560577924299992  5.0693021957999989  100.79362530360002
2310  3  15.365505683999999  6.3366277446999986  110.87292725510002
2311  1  15.365505683999999  3.8019766469999992  133.05208450500001
2312  1  15.365505683999999  3.8019766469999992  139.0906259276
2313  1  17.560577924299992  5.0693021957999989  143.13137161099999
2314  1  17.560577924299992  5.0693021957999989  149.17008032830003
2315  1  15.365505683999999  6.3366277446999986  122.97263010430002
2316  1  15.365505683999999  6.3366277446999986  129.01133882159999
2317  3  15.365505683999999  3.8019766469999992  127.28073494590001
2318  3  15.365505683999999  3.8019766469999992  144.86197548670003
2319  3  17.560577924299992  5.0693021957999989  137.36001820120001
2320  3  17.560577924299992  5.0693021957999989  124.70322027200002
2321  3  15.365505683999999  6.3366277446999986  147.4394901606
2322  3  15.365505683999999  6.3366277446999986  134.78269223149999
2323  3  15.365505683999999  3.8019766469999992  120.95231574800002
2324  3  17.560577924299992  5.0693021957999989  131.03170424059999
2325  3  15.365505683999999  6.3366277446999986  141.11100619210001
2326  1  15.365505683999999  3.8019766469999992  163.29016344199999
2327  1  15.365505683999999  3.8019766469999992  169.32870486460001
2328  1  17.560577924299992  5.0693021957999989  173.369450548
2329  1  17.560577924299992  5.0693021957999989  179.40815926530004
2330  1  15.365505683999999  6.3366277446999986  153.21070904129999
2331  1  15.365505683999999  6.3366277446999986  159.2494177586
2332  3  15.365505683999999  3.8019766469999992  157.51881388289999
2333  3  15.365505683999999  3.8019766469999992  175.10005442369999
2334  3  17.560577924299992  5.0693021957999989  167.59809713819999
2335  3  17.560577924299992  5.0693021957999989  154.94129920899999
2336  3  15.365505683999999  6.3366277446999986  177.67756909760001
2337  3  15.365505683999999  6.3366277446999986  165.0207711685
2338  3  15.365505683999999  3.8019766469999992  151.19039468500003
2339  3  17.560577924299992  5.0693021957999989  161.2697831776
2340  3  15.365505683999999  6.3366277446999986  171.34908512909999
2341  1  13.170433443999999  7.6039532939999992  12.099768757
2342  1  13.170433443999999  7.6039532939999992  18.138310179600001
2343  1  15.365505684299997  8.8712788427999989  22.179055863000002
2344  1  15.365505684299997  8.8712788427999989  28.217764580299999
2345  1  13.170433443999999  10.138604391699998  2.0203143563000001
2346  1  13.170433443999999  10.138604391699998  8.0590230736000006
2347  3  13.170433443999999  7.6039532939999992  6.3284191978999997
2348  3  13.170433443999999  7.6039532939999992  23.909659738700004
2349  3  15.365505684299997  8.8712788427999989  16.407702453200002
2350  3  15.365505684299997  8.8712788427999989  3.7509045240000005
2351  3  13.170433443999999  10.138604391699998  26.487174412600002
2352  3  13.170433443999999  10.138604391699998  13.8303764835
2353  3  13.170433443999999  7.6039532939999992  0
2354  3  15.365505684299997  8.8712788427999989  10.079388492600001
2355  3  13.170433443999999  10.138604391699998  20.158690444100003
2356  1  13.170433443999999  7.6039532939999992  42.337847694000004
2357  1  13.170433443999999  7.6039532939999992  48.376389116600009
2358  1  15.365505684299997  8.8712788427999989  52.417134799999999
2359  1  15.365505684299997  8.8712788427999989  58.455843517299996
2360  1  13.170433443999999  10.138604391699998  32.258393293300003
2361  1  13.170433443999999  10.138604391699998  38.2971020106
2362  3  13.170433443999999  7.6039532939999992  36.566498134900009
2363  3  13.170433443999999  7.6039532939999992  54.147738675700005
2364  3  15.365505684299997  8.8712788427999989  46.6457813902
2365  3  15.365505684299997  8.8712788427999989  33.988983461000004
2366  3  13.170433443999999  10.138604391699998  56.72525334960001
2367  3  13.170433443999999  10.138604391699998  44.068455420500008
2368  3  13.170433443999999  7.6039532939999992  30.238078937000004
2369  3  15.365505684299997  8.8712788427999989  40.317467429600008
2370  3  13.170433443999999  10.138604391699998  50.3967693811
2371  1  13.170433443999999  7.6039532939999992  72.575926631000016
2372  1  13.170433443999999  7.6039532939999992  78.614468053600021
2373  1  15.365505684299997  8.8712788427999989  82.655213737000011
2374  1  15.365505684299997  8.8712788427999989  88.693922454300008
2375  1  13.170433443999999  10.138604391699998  62.496472230300007
2376  1  13.170433443999999  10.138604391699998  68.535180947599997
2377  3  13.170433443999999  7.6039532939999992  66.804577071900013
2378  3  13.170433443999999  7.6039532939999992  84.385817612700023
2379  3  15.365505684299997  8.8712788427999989  76.883860327200011
2380  3  15.365505684299997  8.8712788427999989  64.227062398000001
2381  3  13.170433443999999  10.138604391699998  86.963332286600007
2382  3  13.170433443999999  10.138604391699998  74.306534357500013
2383  3  13.170433443999999  7.6039532939999992  60.476157874000009
2384  3  15.365505684299997  8.8712788427999989  70.555546366600012
2385  3  13.170433443999999  10.138604391699998  80.634848318100012
2386  1  13.170433443999999  7.6039532939999992  102.814005568
2387  1  13.170433443999999  7.6039532939999992  108.8525469906
2388  1  15.365505684299997  8.8712788427999989  112.89329267400002
2389  1  15.365505684299997  8.8712788427999989  118.93200139130001
2390  1  13.170433443999999  10.138604391699998  92.734551167300012
2391  1  13.170433443999999  10.138604391699998  98.773259884600023
2392  3  13.170433443999999  7.6039532939999992  97.042656008900011
2393  3  13.170433443999999  7.6039532939999992  114.62389654970002
2394  3  15.365505684299997  8.8712788427999989  107.12193926420002
2395  3  15.365505684299997  8.8712788427999989  94.465141335000027
2396  3  13.170433443999999  10.138604391699998  117.2014112236
2397  3  13.170433443999999  10.138604391699998  104.54461329450002
2398  3  13.170433443999999  7.6039532939999992  90.714236810999992
2399  3  15.365505684299997  8.8712788427999989  100.79362530360002
2400  3  13.170433443999999  10.138604391699998  110.87292725510002
2401  1  13.170433443999999  7.6039532939999992  133.05208450500001
2402  1  13.170433443999999  7.6039532939999992  139.0906259276
2403  1  15.365505684299997  8.8712788427999989  143.13137161099999
2404  1  15.365505684299997  8.8712788427999989  149.17008032830003
2405  1  13.170433443999999  10.138604391699998  122.97263010430002
2406  1  13.170433443999999  10.138604391699998  129.01133882159999
2407  3  13.170433443999999  7.6039532939999992  127.28073494590001
2408  3  13.170433443999999  7.6039532939999992  144.86197548670003
2409  3  15.365505684299997  8.8712788427999989  137.36001820120001
2410  3  15.365505684299997  8.8712788427999989  124.70322027200002
2411  3  13.170433443999999  10.138604391699998  147.4394901606
2412  3  13.170433443999999  10.138604391699998  134.78269223149999
2413  3  13.170433443999999  7.6039532939999992  120.95231574800002
2414  3  15.365505684299997  8.8712788427999989  131.03170424059999
2415  3  13.170433443999999  10.138604391699998  141.11100619210001
2416  1  13.170433443999999  7.6039532939999992  163.29016344199999
2417  1  13.170433443999999  7.6039532939999992  169.32870486460001
2418  1  15.365505684299997  8.8712788427999989  173.369450548
2419  1  15.365505684299997  8.8712788427999989  179.40815926530004
2420  1  13.170433443999999  10.138604391699998  153.21070904129999
2421  1  13.170433443999999  10.138604391699998  159.2494177586
2422  3  13.170433443999999  7.6039532939999992  157.51881388289999
2423  3  13.170433443999999  7.6039532939999992  175.10005442369999
2424  3  15.365505684299997  8.8712788427999989  167.59809713819999
2425  3  15.365505684299997  8.8712788427999989  154.94129920899999
2426  3  13.170433443999999  10.138604391699998  177.67756909760001
2427  3  13.170433443999999  10.138604391699998  165.0207711685
2428  3  13.170433443999999  7.6039532939999992  151.19039468500003
2429  3  15.365505684299997  8.8712788427999989  161.2697831776
2430  3  13.170433443999999  10.138604391699998  171.34908512909999
2431  1  10.975361203999999  11.405929940999997  12.099768757
2432  1  10.975361203999999  11.405929940999997  18.138310179600001
2433  1  13.170433444299993  12.673255489799997  22.179055863000002
2434  1  13.170433444299993  12.673255489799997  28.217764580299999
2435  1  10.975361203999999  13.940581038699998  2.0203143563000001
2436  1  10.975361203999999  13.940581038699998  8.0590230736000006
2437  3  10.975361203999999  11.405929940999997  6.3284191978999997
2438  3  10.975361203999999  11.405929940999997  23.909659738700004
2439  3  13.170433444299993  12.673255489799997  16.407702453200002
2440  3  13.170433444299993  12.673255489799997  3.7509045240000005
2441  3  10.975361203999999  13.940581038699998  26.487174412600002
2442  3  10.975361203999999  13.940581038699998  13.8303764835
2443  3  10.975361203999999  11.405929940999997  0
2444  3  13.170433444299993  12.673255489799997  10.079388492600001
2445  3  10.975361203999999  13.940581038699998  20.158690444100003
2446  1  10.975361203999999  11.405929940999997  42.337847694000004
2447  1  10.975361203999999  11.405929940999997  48.376389116600009
2448  1  13.170433444299993  12.673255489799997  52.417134799999999
2449  1  13.170433444299993  12.673255489799997  58.455843517299996
2450  1  10.975361203999999  13.940581038699998  32.258393293300003
2451  1  10.975361203999999  13.940581038699998  38.2971020106
2452  3  10.975361203999999  11.405929940999997  36.566498134900009
2453  3  10.975361203999999  11.405929940999997  54.147738675700005
2454  3  13.170433444299993  12.673255489799997  46.6457813902
2455  3  13.170433444299993  12.673255489799997  33.988983461000004
2456  3  10.975361203999999  13.940581038699998  56.72525334960001
2457  3  10.975361203999999  13.940581038699998  44.068455420500008
2458  3  10.975361203999999  11.405929940999997  30.238078937000004
2459  3  13.170433444299993  12.673255489799997  40.317467429600008
2460  3  10.975361203999999  13.940581038699998  50.3967693811
2461  1  10.975361203999999  11.405929940999997  72.575926631000016
2462  1  10.975361203999999  11.405929940999997  78.614468053600021
2463  1  13.170433444299993  12.673255489799997  82.655213737000011
2464  1  13.170433444299993  12.673255489799997  88.693922454300008
2465  1  10.975361203999999  13.940581038699998  62.496472230300007
2466  1  10.975361203999999  13.940581038699998  68.535180947599997
2467  3  10.975361203999999  11.405929940999997  66.804577071900013
2468  3  10.975361203999999  11.405929940999997  84.385817612700023
2469  3  13.170433444299993  12.673255489799997  76.883860327200011
2470  3  13.170433444299993  12.673255489799997  64.227062398000001
2471  3  10.975361203999999  13.940581038699998  86.963332286600007
2472  3  10.975361203999999  13.940581038699998  74.306534357500013
2473  3  10.975361203999999  11.405929940999997  60.476157874000009
2474  3  13.170433444299993  12.673255489799997  70.555546366600012
2475  3  10.975361203999999  13.940581038699998  80.634848318100012
2476  1  10.975361203999999  11.405929940999997  102.814005568
2477  1  10.975361203999999  11.405929940999997  108.8525469906
2478  1  13.170433444299993  12.673255489799997  112.89329267400002
2479  1  13.170433444299993  12.673255489799997  118.93200139130001
2480  1  10.975361203999999  13.940581038699998  92.734551167300012
2481  1  10.975361203999999  13.940581038699998  98.773259884600023
2482  3  10.975361203999999  11.405929940999997  97.042656008900011
2483  3  10.975361203999999  11.405929940999997  114.62389654970002
2484  3  13.170433444299993  12.673255489799997  107.12193926420002
2485  3  13.170433444299993  12.673255489799997  94.465141335000027
2486  3  10.975361203999999  13.940581038699998  117.2014112236
2487  3  10.975361203999999  13.940581038699998  104.54461329450002
2488  3  10.975361203999999  11.405929940999997  90.714236810999992
2489  3  13.170433444299993  12.673255489799997  100.79362530360002
2490  3  10.975361203999999  13.940581038699998  110.87292725510002
2491  1  10.975361203999999  11.405929940999997  133.05208450500001
2492  1  10.975361203999999  11.405929940999997  139.0906259276
2493  1  13.170433444299993  12.673255489799997  143.13137161099999
2494  1  13.170433444299993  12.673255489799997  149.17008032830003
2495  1  10.975361203999999  13.940581038699998  122.97263010430002
2496  1  10.975361203999999  13.940581038699998  129.01133882159999
2497  3  10.975361203999999  11.405929940999997  127.28073494590001
2498  3  10.975361203999999  11.405929940999997  144.86197548670003
2499  3  13.170433444299993  12.673255489799997  137.36001820120001
2500  3  13.170433444299993  12.673255489799997  124.70322027200002
2501  3  10.975361203999999  13.940581038699998  147.4394901606
2502  3  10.975361203999999  13.940581038699998  134.78269223149999
2503  3  10.975361203999999  11.405929940999997  120.95231574800002
2504  3  13.170433444299993  12.673255489799997  131.03170424059999
2505  3  10.975361203999999  13.940581038699998  141.11100619210001
2506  1  10.975361203999999  11.405929940999997  163.29016344199999
2507  1  10.975361203999999  11.405929940999997  169.32870486460001
2508  1  13.170433444299993  12.673255489799997  173.369450548
2509  1  13.170433444299993  12.673255489799997  179.40815926530004
2510  1  10.975361203999999  13.940581038699998  153.21070904129999
2511  1  10.975361203999999  13.940581038699998  159.2494177586
2512  3  10.975361203999999  11.405929940999997  157.51881388289999
2513  3  10.975361203999999  11.405929940999997  175.10005442369999
2514  3  13.170433444299993  12.673255489799997  167.59809713819999
2515  3  13.170433444299993  12.673255489799997  154.94129920899999
2516  3  10.975361203999999  13.940581038699998  177.67756909760001
2517  3  10.975361203999999  13.940581038699998  165.0207711685
2518  3  10.975361203999999  11.405929940999997  151.19039468500003
2519  3  13.170433444299993  12.673255489799997  161.2697831776
2520  3  10.975361203999999  13.940581038699998  171.34908512909999
2521  1  8.7802889639999986  15.207906587999998  12.099768757
2522  1  8.7802889639999986  15.207906587999998  18.138310179600001
2523  1  10.975361204299993  16.475232136799995  22.179055863000002
2524  1  10.975361204299993  16.475232136799995  28.217764580299999
2525  1  8.7802889639999986  17.742557685699996  2.0203143563000001
2526  1  8.7802889639999986  17.742557685699996  8.0590230736000006
2527  3  8.7802889639999986  15.207906587999998  6.3284191978999997
2528  3  8.7802889639999986  15.207906587999998  23.909659738700004
2529  3  10.975361204299993  16.475232136799995  16.407702453200002
2530  3  10.975361204299993  16.475232136799995  3.7509045240000005
2531  3  8.7802889639999986  17.742557685699996  26.487174412600002
2532  3  8.7802889639999986  17.742557685699996  13.8303764835
2533  3  8.7802889639999986  15.207906587999998  0
2534  3  10.975361204299993  16.475232136799995  10.079388492600001
2535  3  8.7802889639999986  17.742557685699996  20.158690444100003
2536  1  8.7802889639999986  15.207906587999998  42.337847694000004
2537  1  8.7802889639999986  15.207906587999998  48.376389116600009
2538  1  10.975361204299993  16.475232136799995  52.417134799999999
2539  1  10.975361204299993  16.475232136799995  58.455843517299996
2540  1  8.7802889639999986  17.742557685699996  32.258393293300003
2541  1  8.7802889639999986  17.742557685699996  38.2971020106
2542  3  8.7802889639999986  15.207906587999998  36.566498134900009
2543  3  8.7802889639999986  15.207906587999998  54.147738675700005
2544  3  10.975361204299993  16.475232136799995  46.6457813902
2545  3  10.975361204299993  16.475232136799995  33.988983461000004
2546  3  8.7802889639999986  17.742557685699996  56.72525334960001
2547  3  8.7802889639999986  17.742557685699996  44.068455420500008
2548  3  8.7802889639999986  15.207906587999998  30.238078937000004
2549  3  10.975361204299993  16.475232136799995  40.317467429600008
2550  3  8.7802889639999986  17.742557685699996  50.3967693811
2551  1  8.7802889639999986  15.207906587999998  72.575926631000016
2552  1  8.7802889639999986  15.207906587999998  78.614468053600021
2553  1  10.975361204299993  16.475232136799995  82.655213737000011
2554  1  10.975361204299993  16.475232136799995  88.693922454300008
2555  1  8.7802889639999986  17.742557685699996  62.496472230300007
2556  1  8.7802889639999986  17.742557685699996  68.535180947599997
2557  3  8.7802889639999986  15.207906587999998  66.804577071900013
2558  3  8.7802889639999986  15.207906587999998  84.385817612700023
2559  3  10.975361204299993  16.475232136799995  76.883860327200011
2560  3  10.975361204299993  16.475232136799995  64.227062398000001
2561  3  8.7802889639999986  17.742557685699996  86.963332286600007
2562  3  8.7802889639999986  17.742557685699996  74.306534357500013
2563  3  8.7802889639999986  15.207906587999998  60.476157874000009
2564  3  10.975361204299993  16.475232136799995  70.555546366600012
2565  3  8.7802889639999986  17.742557685699996  80.634848318100012
2566  1  8.7802889639999986  15.207906587999998  102.814005568
2567  1  8.7802889639999986  15.207906587999998  108.8525469906
2568  1  10.975361204299993  16.475232136799995  112.89329267400002
2569  1  10.975361204299993  16.475232136799995  118.93200139130001
2570  1  8.7802889639999986  17.742557685699996  92.734551167300012
2571  1  8.7802889639999986  17.742557685699996  98.773259884600023
2572  3  8.7802889639999986  15.207906587999998  97.042656008900011
2573  3  8.7802889639999986  15.207906587999998  114.62389654970002
2574  3  10.975361204299993  16.475232136799995  107.12193926420002
2575  3  10.975361204299993  16.475232136799995  94.465141335000027
2576  3  8.7802889639999986  17.742557685699996  117.2014112236
2577  3  8.7802889639999986  17.742557685699996  104.54461329450002
2578  3  8.7802889639999986  15.207906587999998  90.714236810999992
2579  3  10.975361204299993  16.475232136799995  100.79362530360002
2580  3  8.7802889639999986  17.742557685699996  110.87292725510002
2581  1  8.7802889639999986  15.207906587999998  133.05208450500001
2582  1  8.7802889639999986  15.207906587999998  139.0906259276
2583  1  10.975361204299993  16.475232136799995  143.13137161099999
2584  1  10.975361204299993  16.475232136799995  149.17008032830003
2585  1  8.7802889639999986  17.742557685699996  122.97263010430002
2586  1  8.7802889639999986  17.742557685699996  129.01133882159999
2587  3  8.7802889639999986  15.207906587999998  127.28073494590001
2588  3  8.7802889639999986  15.207906587999998  144.86197548670003
2589  3  10.975361204299993  16.475232136799995  137.36001820120001
2590  3  10.975361204299993  16.475232136799995  124.70322027200002
2591  3  8.7802889639999986  17.742557685699996  147.4394901606
2592  3  8.7802889639999986  17.742557685699996  134.78269223149999
2593  3  8.7802889639999986  15.207906587999998  120.95231574800002
2594  3  10.975361204299993  16.475232136799995  131.03170424059999
2595  3  8.7802889639999986  17.742557685699996  141.11100619210001
2596  1  8.7802889639999986  15.207906587999998  163.29016344199999
2597  1  8.7802889639999986  15.207906587999998  169.32870486460001
2598  1  10.975361204299993  16.475232136799995  173.369450548
2599  1  10.975361204299993  16.475232136799995  179.40815926530004
2600  1  8.7802889639999986  17.742557685699996  153.21070904129999
2601  1  8.7802889639999986  17.742557685699996  159.2494177586
2602  3  8.7802889639999986  15.207906587999998  157.51881388289999
2603  3  8.7802889639999986  15.207906587999998  175.10005442369999
2604  3  10.975361204299993  16.475232136799995  167.59809713819999
2605  3  10.975361204299993  16.475232136799995  154.94129920899999
2606  3  8.7802889639999986  17.742557685699996  177.67756909760001
2607  3  8.7802889639999986  17.742557685699996  165.0207711685
2608  3  8.7802889639999986  15.207906587999998  151.19039468500003
2609  3  10.975361204299993  16.475232136799995  161.2697831776
2610  3  8.7802889639999986  17.742557685699996  171.34908512909999
2611  1  6.5852167240000004  19.009883234999997  12.099768757
2612  1  6.5852167240000004  19.009883234999997  18.138310179600001
2613  1  8.7802889642999986  20.277208783799995  22.179055863000002
2614  1  8.7802889642999986  20.277208783799995  28.217764580299999
2615  1  6.5852167240000004  21.544534332699993  2.0203143563000001
2616  1  6.5852167240000004  21.544534332699993  8.0590230736000006
2617  3  6.5852167240000004  19.009883234999997  6.3284191978999997
2618  3  6.5852167240000004  19.009883234999997  23.909659738700004
2619  3  8.7802889642999986  20.277208783799995  16.407702453200002
2620  3  8.7802889642999986  20.277208783799995  3.7509045240000005
2621  3  6.5852167240000004  21.544534332699993  26.487174412600002
2622  3  6.5852167240000004  21.544534332699993  13.8303764835
2623  3  6.5852167240000004  19.009883234999997  0
2624  3  8.7802889642999986  20.277208783799995  10.079388492600001
2625  3  6.5852167240000004  21.544534332699993  20.158690444100003
2626  1  6.5852167240000004  19.009883234999997  42.337847694000004
2627  1  6.5852167240000004  19.009883234999997  48.376389116600009
2628  1  8.7802889642999986  20.277208783799995  52.417134799999999
2629  1  8.7802889642999986  20.277208783799995  58.455843517299996
2630  1  6.5852167240000004  21.544534332699993  32.258393293300003
2631  1  6.5852167240000004  21.544534332699993  38.2971020106
2632  3  6.5852167240000004  19.009883234999997  36.566498134900009
2633  3  6.5852167240000004  19.009883234999997  54.147738675700005
2634  3  8.7802889642999986  20.277208783799995  46.6457813902
2635  3  8.7802889642999986  20.277208783799995  33.988983461000004
2636  3  6.5852167240000004  21.544534332699993  56.72525334960001
2637  3  6.5852167240000004  21.544534332699993  44.068455420500008
2638  3  6.5852167240000004  19.009883234999997  30.238078937000004
2639  3  8.7802889642999986  20.277208783799995  40.317467429600008
2640  3  6.5852167240000004  21.544534332699993  50.3967693811
2641  1  6.5852167240000004  19.009883234999997  72.575926631000016
2642  1  6.5852167240000004  19.009883234999997  78.614468053600021
2643  1  8.7802889642999986  20.277208783799995  82.655213737000011
2644  1  8.7802889642999986  20.277208783799995  88.693922454300008
2645  1  6.5852167240000004  21.544534332699993  62.496472230300007
2646  1  6.5852167240000004  21.544534332699993  68.535180947599997
2647  3  6.5852167240000004  19.009883234999997  66.804577071900013
2648  3  6.5852167240000004  19.009883234999997  84.385817612700023
2649  3  8.7802889642999986  20.277208783799995  76.883860327200011
2650  3  8.7802889642999986  20.277208783799995  64.227062398000001
2651  3  6.5852167240000004  21.544534332699993  86.963332286600007
2652  3  6.5852167240000004  21.544534332699993  74.306534357500013
2653  3  6.5852167240000004  19.009883234999997  60.476157874000009
2654  3  8.7802889642999986  20.277208783799995  70.555546366600012
2655  3  6.5852167240000004  21.544534332699993  80.634848318100012
2656  1  6.5852167240000004  19.009883234999997  102.814005568
2657  1  6.5852167240000004  19.009883234999997  108.8525469906
2658  1  8.7802889642999986  20.277208783799995  112.89329267400002
2659  1  8.7802889642999986  20.277208783799995  118.93200139130001
2660  1  6.5852167240000004  21.544534332699993  92.734551167300012
2661  1  6.5852167240000004  21.544534332699993  98.773259884600023
2662  3  6.5852167240000004  19.009883234999997  97.042656008900011
2663  3  6.5852167240000004  19.009883234999997  114.62389654970002
2664  3  8.7802889642999986  20.277208783799995  107.12193926420002
2665  3  8.7802889642999986  20.277208783799995  94.465141335000027
2666  3  6.5852167240000004  21.544534332699993  117.2014112236
2667  3  6.5852167240000004  21.544534332699993  104.54461329450002
2668  3  6.5852167240000004  19.009883234999997  90.714236810999992
2669  3  8.7802889642999986  20.277208783799995  100.79362530360002
2670  3  6.5852167240000004  21.544534332699993  110.87292725510002
2671  1  6.5852167240000004  19.009883234999997  133.05208450500001
2672  1  6.5852167240000004  19.009883234999997  139.0906259276
2673  1  8.7802889642999986  20.277208783799995  143.13137161099999
2674  1  8.7802889642999986  20.277208783799995  149.17008032830003
2675  1  6.5852167240000004  21.544534332699993  122.97263010430002
2676  1  6.5852167240000004  21.544534332699993  129.01133882159999
2677  3  6.5852167240000004  19.009883234999997  127.28073494590001
2678  3  6.5852167240000004  19.009883234999997  144.86197548670003
2679  3  8.7802889642999986  20.277208783799995  137.36001820120001
2680  3  8.7802889642999986  20.277208783799995  124.70322027200002
2681  3  6.5852167240000004  21.544534332699993  147.4394901606
2682  3  6.5852167240000004  21.544534332699993  134.78269223149999
2683  3  6.5852167240000004  19.009883234999997  120.95231574800002
2684  3  8.7802889642999986  20.277208783799995  131.03170424059999
2685  3  6.5852167240000004  21.544534332699993  141.11100619210001
2686  1  6.5852167240000004  19.009883234999997  163.29016344199999
2687  1  6.5852167240000004  19.009883234999997  169.32870486460001
2688  1  8.7802889642999986  20.277208783799995  173.369450548
2689  1  8.7802889642999986  20.277208783799995  179.40815926530004
2690  1  6.5852167240000004  21.544534332699993  153.21070904129999
2691  1  6.5852167240000004  21.544534332699993  159.2494177586
2692  3  6.5852167240000004  19.009883234999997  157.51881388289999
2693  3  6.5852167240000004  19.009883234999997  175.10005442369999
2694  3  8.7802889642999986  20.277208783799995  167.59809713819999
2695  3  8.7802889642999986  20.277208783799995  154.94129920899999
2696  3  6.5852167240000004  21.544534332699993  177.67756909760001
2697  3  6.5852167240000004  21.544534332699993  165.0207711685
2698  3  6.5852167240000004  19.009883234999997  151.19039468500003
2699  3  8.7802889642999986  20.277208783799995  161.2697831776
2700  3  6.5852167240000004  21.544534332699993  171.34908512909999
2701  1  21.950722404999993  -7.5629784241471149e-16  12.099768757
2702  1  21.950722404999993  -7.5629784241471149e-16  18.138310179600001
2703  1  24.14579464529999  1.2673255487999988  22.179055863000002
2704  1  24.14579464529999  1.2673255487999988  28.217764580299999
2705  1  21.950722404999993  2.534651097699999  2.0203143563000001
2706  1  21.950722404999993  2.534651097699999  8.0590230736000006
2707  3  21.950722404999993  -7.5629784241471149e-16  6.3284191978999997
2708  3  21.950722404999993  -7.5629784241471149e-16  23.909659738700004
2709  3  24.14579464529999  1.2673255487999988  16.407702453200002
2710  3  24.14579464529999  1.2673255487999988  3.7509045240000005
2711  3  21.950722404999993  2.534651097699999  26.487174412600002
2712  3  21.950722404999993  2.534651097699999  13.8303764835
2713  3  21.950722404999993  -7.5629784241471149e-16  0
2714  3  24.14579464529999  1.2673255487999988  10.079388492600001
2715  3  21.950722404999993  2.534651097699999  20.158690444100003
2716  1  21.950722404999993  -7.5629784241471149e-16  42.337847694000004
2717  1  21.950722404999993  -7.5629784241471149e-16  48.376389116600009
2718  1  24.14579464529999  1.2673255487999988  52.417134799999999
2719  1  24.14579464529999  1.2673255487999988  58.455843517299996
2720  1  21.950722404999993  2.534651097699999  32.258393293300003
2721  1  21.950722404999993  2.534651097699999  38.2971020106
2722  3  21.950722404999993  -7.5629784241471149e-16  36.566498134900009
2723  3  21.950722404999993  -7.5629784241471149e-16  54.147738675700005
2724  3  24.14579464529999  1.2673255487999988  46.6457813902
2725  3  24.14579464529999  1.2673255487999988  33.988983461000004
2726  3  21.950722404999993  2.534651097699999  56.72525334960001
2727  3  21.950722404999993  2.534651097699999  44.068455420500008
2728  3  21.950722404999993  -7.5629784241471149e-16  30.238078937000004
2729  3  24.14579464529999  1.2673255487999988  40.317467429600008
2730  3  21.950722404999993  2.534651097699999  50.3967693811
2731  1  21.950722404999993  -7.5629784241471149e-16  72.575926631000016
2732  1  21.950722404999993  -7.5629784241471149e-16  78.614468053600021
2733  1  24.14579464529999  1.2673255487999988  82.655213737000011
2734  1  24.14579464529999  1.2673255487999988  88.693922454300008
2735  1  21.950722404999993  2.534651097699999  62.496472230300007
2736  1  21.950722404999993  2.534651097699999  68.535180947599997
2737  3  21.950722404999993  -7.5629784241471149e-16  66.804577071900013
2738  3  21.950722404999993  -7.5629784241471149e-16  84.385817612700023
2739  3  24.14579464529999  1.2673255487999988  76.883860327200011
2740  3  24.14579464529999  1.2673255487999988  64.227062398000001
2741  3  21.950722404999993  2.534651097699999  86.963332286600007
2742  3  21.950722404999993  2.534651097699999  74.306534357500013
2743  3  21.950722404999993  -7.5629784241471149e-16  60.476157874000009
2744  3  24.14579464529999  1.2673255487999988  70.555546366600012
2745  3  21.950722404999993  2.534651097699999  80.634848318100012
2746  1  21.950722404999993  -7.5629784241471149e-16  102.814005568
2747  1  21.950722404999993  -7.5629784241471149e-16  108.8525469906
2748  1  24.14579464529999  1.2673255487999988  112.89329267400002
2749  1  24.14579464529999  1.2673255487999988  118.93200139130001
2750  1  21.950722404999993  2.534651097699999  92.734551167300012
2751  1  21.950722404999993  2.534651097699999  98.773259884600023
2752  3  21.950722404999993  -7.5629784241471149e-16  97.042656008900011
2753  3  21.950722404999993  -7.5629784241471149e-16  114.62389654970002
2754  3  24.14579464529999  1.2673255487999988  107.12193926420002
2755  3  24.14579464529999  1.2673255487999988  94.465141335000027
2756  3  21.950722404999993  2.534651097699999  117.2014112236
2757  3  21.950722404999993  2.534651097699999  104.54461329450002
2758  3  21.950722404999993  -7.5629784241471149e-16  90.714236810999992
2759  3  24.14579464529999  1.2673255487999988  100.79362530360002
2760  3  21.950722404999993  2.534651097699999  110.87292725510002
2761  1  21.950722404999993  -7.5629784241471149e-16  133.05208450500001
2762  1  21.950722404999993  -7.5629784241471149e-16  139.0906259276
2763  1  24.14579464529999  1.2673255487999988  143.13137161099999
2764  1  24.14579464529999  1.2673255487999988  149.17008032830003
2765  1  21.950722404999993  2.534651097699999  122.97263010430002
2766  1  21.950722404999993  2.534651097699999  129.01133882159999
2767  3  21.950722404999993  -7.5629784241471149e-16  127.28073494590001
2768  3  21.950722404999993  -7.5629784241471149e-16  144.86197548670003
2769  3  24.14579464529999  1.2673255487999988  137.36001820120001
2770  3  24.14579464529999  1.2673255487999988  124.70322027200002
2771  3  21.950722404999993  2.534651097699999  147.4394901606
2772  3  21.950722404999993  2.534651097699999  134.78269223149999
2773  3  21.950722404999993  -7.5629784241471149e-16  120.95231574800002
2774  3  24.14579464529999  1.2673255487999988  131.03170424059999
2775  3  21.950722404999993  2.534651097699999  141.11100619210001
2776  1  21.950722404999993  -7.5629784241471149e-16  163.29016344199999
2777  1  21.950722404999993  -7.5629784241471149e-16  169.32870486460001
2778  1  24.14579464529999  1.2673255487999988  173.369450548
2779  1  24.14579464529999  1.2673255487999988  179.40815926530004
2780  1  21.950722404999993  2.534651097699999  153.21070904129999
2781  1  21.950722404999993  2.534651097699999  159.2494177586
2782  3  21.950722404999993  -7.5629784241471149e-16  157.51881388289999
2783  3  21.950722404999993  -7.5629784241471149e-16  175.10005442369999
2784  3  24.14579464529999  1.2673255487999988  167.59809713819999
2785  3  24.14579464529999  1.2673255487999988  154.94129920899999
2786  3  21.950722404999993  2.534651097699999  177.67756909760001
2787  3  21.950722404999993  2.534651097699999  165.0207711685
2788  3  21.950722404999993  -7.5629784241471149e-16  151.19039468500003
2789  3  24.14579464529999  1.2673255487999988  161.2697831776
2790  3  21.950722404999993  2.534651097699999  171.34908512909999
2791  1  19.755650164999995  3.8019766469999992  12.099768757
2792  1  19.755650164999995  3.8019766469999992  18.138310179600001
2793  1  21.950722405299992  5.0693021957999989  22.179055863000002
2794  1  21.950722405299992  5.0693021957999989  28.217764580299999
2795  1  19.755650164999992  6.3366277446999977  2.0203143563000001
2796  1  19.755650164999992  6.3366277446999977  8.0590230736000006
2797  3  19.755650164999995  3.8019766469999992  6.3284191978999997
2798  3  19.755650164999995  3.8019766469999992  23.909659738700004
2799  3  21.950722405299992  5.0693021957999989  16.407702453200002
2800  3  21.950722405299992  5.0693021957999989  3.7509045240000005
2801  3  19.755650164999992  6.3366277446999977  26.487174412600002
2802  3  19.755650164999992  6.3366277446999977  13.8303764835
2803  3  19.755650164999995  3.8019766469999992  0
2804  3  21.950722405299992  5.0693021957999989  10.079388492600001
2805  3  19.755650164999992  6.3366277446999977  20.158690444100003
2806  1  19.755650164999995  3.8019766469999992  42.337847694000004
2807  1  19.755650164999995  3.8019766469999992  48.376389116600009
2808  1  21.950722405299992  5.0693021957999989  52.417134799999999
2809  1  21.950722405299992  5.0693021957999989  58.455843517299996
2810  1  19.755650164999992  6.3366277446999977  32.258393293300003
2811  1  19.755650164999992  6.3366277446999977  38.2971020106
2812  3  19.755650164999995  3.8019766469999992  36.566498134900009
2813  3  19.755650164999995  3.8019766469999992  54.147738675700005
2814  3  21.950722405299992  5.0693021957999989  46.6457813902
2815  3  21.950722405299992  5.0693021957999989  33.988983461000004
2816  3  19.755650164999992  6.3366277446999977  56.72525334960001
2817  3  19.755650164999992  6.3366277446999977  44.068455420500008
2818  3  19.755650164999995  3.8019766469999992  30.238078937000004
2819  3  21.950722405299992  5.0693021957999989  40.317467429600008
2820  3  19.755650164999992  6.3366277446999977  50.3967693811
2821  1  19.755650164999995  3.8019766469999992  72.575926631000016
2822  1  19.755650164999995  3.8019766469999992  78.614468053600021
2823  1  21.950722405299992  5.0693021957999989  82.655213737000011
2824  1  21.950722405299992  5.0693021957999989  88.693922454300008
2825  1  19.755650164999992  6.3366277446999977  62.496472230300007
2826  1  19.755650164999992  6.3366277446999977  68.535180947599997
2827  3  19.755650164999995  3.8019766469999992  66.804577071900013
2828  3  19.755650164999995  3.8019766469999992  84.385817612700023
2829  3  21.950722405299992  5.0693021957999989  76.883860327200011
2830  3  21.950722405299992  5.0693021957999989  64.227062398000001
2831  3  19.755650164999992  6.3366277446999977  86.963332286600007
2832  3  19.755650164999992  6.3366277446999977  74.306534357500013
2833  3  19.755650164999995  3.8019766469999992  60.476157874000009
2834  3  21.950722405299992  5.0693021957999989  70.555546366600012
2835  3  19.755650164999992  6.3366277446999977  80.634848318100012
2836  1  19.755650164999995  3.8019766469999992  102.814005568
2837  1  19.755650164999995  3.8019766469999992  108.8525469906
2838  1  21.950722405299992  5.0693021957999989  112.89329267400002
2839  1  21.950722405299992  5.0693021957999989  118.93200139130001
2840  1  19.755650164999992  6.3366277446999977  92.734551167300012
2841  1  19.755650164999992  6.3366277446999977  98.773259884600023
2842  3  19.755650164999995  3.8019766469999992  97.042656008900011
2843  3  19.755650164999995  3.8019766469999992  114.62389654970002
2844  3  21.950722405299992  5.0693021957999989  107.12193926420002
2845  3  21.950722405299992  5.0693021957999989  94.465141335000027
2846  3  19.755650164999992  6.3366277446999977  117.2014112236
2847  3  19.755650164999992  6.3366277446999977  104.54461329450002
2848  3  19.755650164999995  3.8019766469999992  90.714236810999992
2849  3  21.950722405299992  5.0693021957999989  100.79362530360002
2850  3  19.755650164999992  6.3366277446999977  110.87292725510002
2851  1  19.755650164999995  3.8019766469999992  133.05208450500001
2852  1  19.755650164999995  3.8019766469999992  139.0906259276
2853  1  21.950722405299992  5.0693021957999989  143.13137161099999
2854  1  21.950722405299992  5.0693021957999989  149.17008032830003
2855  1  19.755650164999992  6.3366277446999977  122.97263010430002
2856  1  19.755650164999992  6.3366277446999977  129.01133882159999
2857  3  19.755650164999995  3.8019766469999992  127.28073494590001
2858  3  19.755650164999995  3.8019766469999992  144.86197548670003
2859  3  21.950722405299992  5.0693021957999989  137.36001820120001
2860  3  21.950722405299992  5.0693021957999989  124.70322027200002
2861  3  19.755650164999992  6.3366277446999977  147.4394901606
2862  3  19.755650164999992  6.3366277446999977  134.78269223149999
2863  3  19.755650164999995  3.8019766469999992  120.95231574800002
2864  3  21.950722405299992  5.0693021957999989  131.03170424059999
2865  3  19.755650164999992  6.3366277446999977  141.11100619210001
2866  1  19.755650164999995  3.8019766469999992  163.29016344199999
2867  1  19.755650164999995  3.8019766469999992  169.32870486460001
2868  1  21.950722405299992  5.0693021957999989  173.369450548
2869  1  21.950722405299992  5.0693021957999989  179.40815926530004
2870  1  19.755650164999992  6.3366277446999977  153.21070904129999
2871  1  19.755650164999992  6.3366277446999977  159.2494177586
2872  3  19.755650164999995  3.8019766469999992  157.51881388289999
2873  3  19.755650164999995  3.8019766469999992  175.10005442369999
2874  3  21.950722405299992  5.0693021957999989  167.59809713819999
2875  3  21.950722405299992  5.0693021957999989  154.94129920899999
2876  3  19.755650164999992  6.3366277446999977  177.67756909760001
2877  3  19.755650164999992  6.3366277446999977  165.0207711685
2878  3  19.755650164999995  3.8019766469999992  151.19039468500003
2879  3  21.950722405299992  5.0693021957999989  161.2697831776
2880  3  19.755650164999992  6.3366277446999977  171.34908512909999
2881  1  17.560577924999993  7.6039532939999983  12.099768757
2882  1  17.560577924999993  7.6039532939999983  18.138310179600001
2883  1  19.75565016529999  8.8712788427999989  22.179055863000002
2884  1  19.75565016529999  8.8712788427999989  28.217764580299999
2885  1  17.560577924999993  10.138604391699998  2.0203143563000001
2886  1  17.560577924999993  10.138604391699998  8.0590230736000006
2887  3  17.560577924999993  7.6039532939999983  6.3284191978999997
2888  3  17.560577924999993  7.6039532939999983  23.909659738700004
2889  3  19.75565016529999  8.8712788427999989  16.407702453200002
2890  3  19.75565016529999  8.8712788427999989  3.7509045240000005
2891  3  17.560577924999993  10.138604391699998  26.487174412600002
2892  3  17.560577924999993  10.138604391699998  13.8303764835
2893  3  17.560577924999993  7.6039532939999983  0
2894  3  19.75565016529999  8.8712788427999989  10.079388492600001
2895  3  17.560577924999993  10.138604391699998  20.158690444100003
2896  1  17.560577924999993  7.6039532939999983  42.337847694000004
2897  1  17.560577924999993  7.6039532939999983  48.376389116600009
2898  1  19.75565016529999  8.8712788427999989  52.417134799999999
2899  1  19.75565016529999  8.8712788427999989  58.455843517299996
2900  1  17.560577924999993  10.138604391699998  32.258393293300003
2901  1  17.560577924999993  10.138604391699998  38.2971020106
2902  3  17.560577924999993  7.6039532939999983  36.566498134900009
2903  3  17.560577924999993  7.6039532939999983  54.147738675700005
2904  3  19.75565016529999  8.8712788427999989  46.6457813902
2905  3  19.75565016529999  8.8712788427999989  33.988983461000004
2906  3  17.560577924999993  10.138604391699998  56.72525334960001
2907  3  17.560577924999993  10.138604391699998  44.068455420500008
2908  3  17.560577924999993  7.6039532939999983  30.238078937000004
2909  3  19.75565016529999  8.8712788427999989  40.317467429600008
2910  3  17.560577924999993  10.138604391699998  50.3967693811
2911  1  17.560577924999993  7.6039532939999983  72.575926631000016
2912  1  17.560577924999993  7.6039532939999983  78.614468053600021
2913  1  19.75565016529999  8.8712788427999989  82.655213737000011
2914  1  19.75565016529999  8.8712788427999989  88.693922454300008
2915  1  17.560577924999993  10.138604391699998  62.496472230300007
2916  1  17.560577924999993  10.138604391699998  68.535180947599997
2917  3  17.560577924999993  7.6039532939999983  66.804577071900013
2918  3  17.560577924999993  7.6039532939999983  84.385817612700023
2919  3  19.75565016529999  8.8712788427999989  76.883860327200011
2920  3  19.75565016529999  8.8712788427999989  64.227062398000001
2921  3  17.560577924999993  10.138604391699998  86.963332286600007
2922  3  17.560577924999993  10.138604391699998  74.306534357500013
2923  3  17.560577924999993  7.6039532939999983  60.476157874000009
2924  3  19.75565016529999  8.8712788427999989  70.555546366600012
2925  3  17.560577924999993  10.138604391699998  80.634848318100012
2926  1  17.560577924999993  7.6039532939999983  102.814005568
2927  1  17.560577924999993  7.6039532939999983  108.8525469906
2928  1  19.75565016529999  8.8712788427999989  112.89329267400002
2929  1  19.75565016529999  8.8712788427999989  118.93200139130001
2930  1  17.560577924999993  10.138604391699998  92.734551167300012
2931  1  17.560577924999993  10.138604391699998  98.773259884600023
2932  3  17.560577924999993  7.6039532939999983  97.042656008900011
2933  3  17.560577924999993  7.6039532939999983  114.62389654970002
2934  3  19.75565016529999  8.8712788427999989  107.12193926420002
2935  3  19.75565016529999  8.8712788427999989  94.465141335000027
2936  3  17.560577924999993  10.138604391699998  117.2014112236
2937  3  17.560577924999993  10.138604391699998  104.54461329450002
2938  3  17.560577924999993  7.6039532939999983  90.714236810999992
2939  3  19.75565016529999  8.8712788427999989  100.79362530360002
2940  3  17.560577924999993  10.138604391699998  110.87292725510002
2941  1  17.560577924999993  7.6039532939999983  133.05208450500001
2942  1  17.560577924999993  7.6039532939999983  139.0906259276
2943  1  19.75565016529999  8.8712788427999989  143.13137161099999
2944  1  19.75565016529999  8.8712788427999989  149.17008032830003
2945  1  17.560577924999993  10.138604391699998  122.97263010430002
2946  1  17.560577924999993  10.138604391699998  129.01133882159999
2947  3  17.560577924999993  7.6039532939999983  127.28073494590001
2948  3  17.560577924999993  7.6039532939999983  144.86197548670003
2949  3  19.75565016529999  8.8712788427999989  137.36001820120001
2950  3  19.75565016529999  8.8712788427999989  124.70322027200002
2951  3  17.560577924999993  10.138604391699998  147.4394901606
2952  3  17.560577924999993  10.138604391699998  134.78269223149999
2953  3  17.560577924999993  7.6039532939999983  120.95231574800002
2954  3  19.75565016529999  8.8712788427999989  131.03170424059999
2955  3  17.560577924999993  10.138604391699998  141.11100619210001
2956  1  17.560577924999993  7.6039532939999983  163.29016344199999
2957  1  17.560577924999993  7.6039532939999983  169.32870486460001
2958  1  19.75565016529999  8.8712788427999989  173.369450548
2959  1  19.75565016529999  8.8712788427999989  179.40815926530004
2960  1  17.560577924999993  10.138604391699998  153.21070904129999
2961  1  17.560577924999993  10.138604391699998  159.2494177586
2962  3  17.560577924999993  7.6039532939999983  157.51881388289999
2963  3  17.560577924999993  7.6039532939999983  175.10005442369999
2964  3  19.75565016529999  8.8712788427999989  167.59809713819999
2965  3  19.75565016529999  8.8712788427999989  154.94129920899999
2966  3  17.560577924999993  10.138604391699998  177.67756909760001
2967  3  17.560577924999993  10.138604391699998  165.0207711685
2968  3  17.560577924999993  7.6039532939999983  151.19039468500003
2969  3  19.75565016529999  8.8712788427999989  161.2697831776
2970  3  17.560577924999993  10.138604391699998  171.34908512909999
2971  1  15.365505684999995  11.405929940999997  12.099768757
2972  1  15.365505684999995  11.405929940999997  18.138310179600001
2973  1  17.560577925299988  12.673255489799997  22.179055863000002
2974  1  17.560577925299988  12.673255489799997  28.217764580299999
2975  1  15.365505684999995  13.940581038699998  2.0203143563000001
2976  1  15.365505684999995  13.940581038699998  8.0590230736000006
2977  3  15.365505684999995  11.405929940999997  6.3284191978999997
2978  3  15.365505684999995  11.405929940999997  23.909659738700004
2979  3  17.560577925299988  12.673255489799997  16.407702453200002
2980  3  17.560577925299988  12.673255489799997  3.7509045240000005
2981  3  15.365505684999995  13.940581038699998  26.487174412600002
2982  3  15.365505684999995  13.940581038699998  13.8303764835
2983  3  15.365505684999995  11.405929940999997  0
2984  3  17.560577925299988  12.673255489799997  10.079388492600001
2985  3  15.365505684999995  13.940581038699998  20.158690444100003
2986  1  15.365505684999995  11.405929940999997  42.337847694000004
2987  1  15.365505684999995  11.405929940999997  48.376389116600009
2988  1  17.560577925299988  12.673255489799997  52.417134799999999
2989  1  17.560577925299988  12.673255489799997  58.455843517299996
2990  1  15.365505684999995  13.940581038699998  32.258393293300003
2991  1  15.365505684999995  13.940581038699998  38.2971020106
2992  3  15.365505684999995  11.405929940999997  36.566498134900009
2993  3  15.365505684999995  11.405929940999997  54.147738675700005
2994  3  17.560577925299988  12.673255489799997  46.6457813902
2995  3  17.560577925299988  12.673255489799997  33.988983461000004
2996  3  15.365505684999995  13.940581038699998  56.72525334960001
2997  3  15.365505684999995  13.940581038699998  44.068455420500008
2998  3  15.365505684999995  11.405929940999997  30.238078937000004
2999  3  17.560577925299988  12.673255489799997  40.317467429600008
3000  3  15.365505684999995  13.940581038699998  50.3967693811
3001  1  15.365505684999995  11.405929940999997  72.575926631000016
3002  1  15.365505684999995  11.405929940999997  78.614468053600021
3003  1  17.560577925299988  12.673255489799997  82.655213737000011
3004  1  17.560577925299988  12.673255489799997  88.693922454300008
3005  1  15.365505684999995  13.940581038699998  62.496472230300007
3006  1  15.365505684999995  13.940581038699998  68.535180947599997
3007  3  15.365505684999995  11.405929940999997  66.804577071900013
3008  3  15.365505684999995  11.405929940999997  84.385817612700023
3009  3  17.560577925299988  12.673255489799997  76.883860327200011
3010  3  17.560577925299988  12.673255489799997  64.227062398000001
3011  3  15.365505684999995  13.940581038699998  86.963332286600007
3012  3  15.365505684999995  13.940581038699998  74.306534357500013
3013  3  15.365505684999995  11.405929940999997  60.476157874000009
3014  3  17.560577925299988  12.673255489799997  70.555546366600012
3015  3  15.365505684999995  13.940581038699998  80.634848318100012
3016  1  15.365505684999995  11.405929940999997  102.814005568
3017  1  15.365505684999995  11.405929940999997  108.8525469906
3018  1  17.560577925299988  12.673255489799997  112.89329267400002
3019  1  17.560577925299988  12.673255489799997  118.93200139130001
3020  1  15.365505684999995  13.940581038699998  92.734551167300012
3021  1  15.365505684999995  13.940581038699998  98.773259884600023
3022  3  15.365505684999995  11.405929940999997  97.042656008900011
3023  3  15.365505684999995  11.405929940999997  114.62389654970002
3024  3  17.560577925299988  12.673255489799997  107.12193926420002
3025  3  17.560577925299988  12.673255489799997  94.465141335000027
3026  3  15.365505684999995  13.940581038699998  117.2014112236
3027  3  15.365505684999995  13.940581038699998  104.54461329450002
3028  3  15.365505684999995  11.405929940999997  90.714236810999992
3029  3  17.560577925299988  12.673255489799997  100.79362530360002
3030  3  15.365505684999995  13.940581038699998  110.87292725510002
3031  1  15.365505684999995  11.405929940999997  133.05208450500001
3032  1  15.365505684999995  11.405929940999997  139.0906259276
3033  1  17.560577925299988  12.673255489799997  143.13137161099999
3034  1  17.560577925299988  12.673255489799997  149.17008032830003
3035  1  15.365505684999995  13.940581038699998  122.97263010430002
3036  1  15.365505684999995  13.940581038699998  129.01133882159999
3037  3  15.365505684999995  11.405929940999997  127.28073494590001
3038  3  15.365505684999995  11.405929940999997  144.86197548670003
3039  3  17.560577925299988  12.673255489799997  137.36001820120001
3040  3  17.560577925299988  12.673255489799997  124.70322027200002
3041  3  15.365505684999995  13.940581038699998  147.4394901606
3042  3  15.365505684999995  13.940581038699998  134.78269223149999
3043  3  15.365505684999995  11.405929940999997  120.95231574800002
3044  3  17.560577925299988  12.673255489799997  131.03170424059999
3045  3  15.365505684999995  13.940581038699998  141.11100619210001
3046  1  15.365505684999995  11.405929940999997  163.29016344199999
3047  1  15.365505684999995  11.405929940999997  169.32870486460001
3048  1  17.560577925299988  12.673255489799997  173.369450548
3049  1  17.560577925299988  12.673255489799997  179.40815926530004
3050  1  15.365505684999995  13.940581038699998  153.21070904129999
3051  1  15.365505684999995  13.940581038699998  159.2494177586
3052  3  15.365505684999995  11.405929940999997  157.51881388289999
3053  3  15.365505684999995  11.405929940999997  175.10005442369999
3054  3  17.560577925299988  12.673255489799997  167.59809713819999
3055  3  17.560577925299988  12.673255489799997  154.94129920899999
3056  3  15.365505684999995  13.940581038699998  177.67756909760001
3057  3  15.365505684999995  13.940581038699998  165.0207711685
3058  3  15.365505684999995  11.405929940999997  151.19039468500003
3059  3  17.560577925299988  12.673255489799997  161.2697831776
3060  3  15.365505684999995  13.940581038699998  171.34908512909999
3061  1  13.170433444999995  15.207906587999998  12.099768757
3062  1  13.170433444999995  15.207906587999998  18.138310179600001
3063  1  15.36550568529999  16.475232136799995  22.179055863000002
3064  1  15.36550568529999  16.475232136799995  28.217764580299999
3065  1  13.170433444999995  17.742557685699996  2.0203143563000001
3066  1  13.170433444999995  17.742557685699996  8.0590230736000006
3067  3  13.170433444999995  15.207906587999998  6.3284191978999997
3068  3  13.170433444999995  15.207906587999998  23.909659738700004
3069  3  15.36550568529999  16.475232136799995  16.407702453200002
3070  3  15.36550568529999  16.475232136799995  3.7509045240000005
3071  3  13.170433444999995  17.742557685699996  26.487174412600002
3072  3  13.170433444999995  17.742557685699996  13.8303764835
3073  3  13.170433444999995  15.207906587999998  0
3074  3  15.36550568529999  16.475232136799995  10.079388492600001
3075  3  13.170433444999995  17.742557685699996  20.158690444100003
3076  1  13.170433444999995  15.207906587999998  42.337847694000004
3077  1  13.170433444999995  15.207906587999998  48.376389116600009
3078  1  15.36550568529999  16.475232136799995  52.417134799999999
3079  1  15.36550568529999  16.475232136799995  58.455843517299996
3080  1  13.170433444999995  17.742557685699996  32.258393293300003
3081  1  13.170433444999995  17.742557685699996  38.2971020106
3082  3  13.170433444999995  15.207906587999998  36.566498134900009
3083  3  13.170433444999995  15.207906587999998  54.147738675700005
3084  3  15.36550568529999  16.475232136799995  46.6457813902
3085  3  15.36550568529999  16.475232136799995  33.988983461000004
3086  3  13.170433444999995  17.742557685699996  56.72525334960001
3087  3  13.170433444999995  17.742557685699996  44.068455420500008
3088  3  13.170433444999995  15.207906587999998  30.238078937000004
3089  3  15.36550568529999  16.475232136799995  40.317467429600008
3090  3  13.170433444999995  17.742557685699996  50.3967693811
3091  1  13.170433444999995  15.207906587999998  72.575926631000016
3092  1  13.170433444999995  15.207906587999998  78.614468053600021
3093  1  15.36550568529999  16.475232136799995  82.655213737000011
3094  1  15.36550568529999  16.475232136799995  88.693922454300008
3095  1  13.170433444999995  17.742557685699996  62.496472230300007
3096  1  13.170433444999995  17.742557685699996  68.535180947599997
3097  3  13.170433444999995  15.207906587999998  66.804577071900013
3098  3  13.170433444999995  15.207906587999998  84.385817612700023
3099  3  15.36550568529999  16.475232136799995  76.883860327200011
3100  3  15.36550568529999  16.475232136799995  64.227062398000001
3101  3  13.170433444999995  17.742557685699996  86.963332286600007
3102  3  13.170433444999995  17.742557685699996  74.306534357500013
3103  3  13.170433444999995  15.207906587999998  60.476157874000009
3104  3  15.36550568529999  16.475232136799995  70.555546366600012
3105  3  13.170433444999995  17.742557685699996  80.634848318100012
3106  1  13.170433444999995  15.207906587999998  102.814005568
3107  1  13.170433444999995  15.207906587999998  108.8525469906
3108  1  15.36550568529999  16.475232136799995  112.89329267400002
3109  1  15.36550568529999  16.475232136799995  118.93200139130001
3110  1  13.170433444999995  17.742557685699996  92.734551167300012
3111  1  13.170433444999995  17.742557685699996  98.773259884600023
3112  3  13.170433444999995  15.207906587999998  97.042656008900011
3113  3  13.170433444999995  15.207906587999998  114.62389654970002
3114  3  15.36550568529999  16.475232136799995  107.12193926420002
3115  3  15.36550568529999  16.475232136799995  94.465141335000027
3116  3  13.170433444999995  17.742557685699996  117.2014112236
3117  3  13.170433444999995  17.742557685699996  104.54461329450002
3118  3  13.170433444999995  15.207906587999998  90.714236810999992
3119  3  15.36550568529999  16.475232136799995  100.79362530360002
3120  3  13.170433444999995  17.742557685699996  110.87292725510002
3121  1  13.170433444999995  15.207906587999998  133.05208450500001
3122  1  13.170433444999995  15.207906587999998  139.0906259276
3123  1  15.36550568529999  16.475232136799995  143.13137161099999
3124  1  15.36550568529999  16.475232136799995  149.17008032830003
3125  1  13.170433444999995  17.742557685699996  122.97263010430002
3126  1  13.170433444999995  17.742557685699996  129.01133882159999
3127  3  13.170433444999995  15.207906587999998  127.28073494590001
3128  3  13.170433444999995  15.207906587999998  144.86197548670003
3129  3  15.36550568529999  16.475232136799995  137.36001820120001
3130  3  15.36550568529999  16.475232136799995  124.70322027200002
3131  3  13.170433444999995  17.742557685699996  147.4394901606
3132  3  13.170433444999995  17.742557685699996  134.78269223149999
3133  3  13.170433444999995  15.207906587999998  120.95231574800002
3134  3  15.36550568529999  16.475232136799995  131.03170424059999
3135  3  13.170433444999995  17.742557685699996  141.11100619210001
3136  1  13.170433444999995  15.207906587999998  163.29016344199999
3137  1  13.170433444999995  15.207906587999998  169.32870486460001
3138  1  15.36550568529999  16.475232136799995  173.369450548
3139  1  15.36550568529999  16.475232136799995  179.40815926530004
3140  1  13.170433444999995  17.742557685699996  153.21070904129999
3141  1  13.170433444999995  17.742557685699996  159.2494177586
3142  3  13.170433444999995  15.207906587999998  157.51881388289999
3143  3  13.170433444999995  15.207906587999998  175.10005442369999
3144  3  15.36550568529999  16.475232136799995  167.59809713819999
3145  3  15.36550568529999  16.475232136799995  154.94129920899999
3146  3  13.170433444999995  17.742557685699996  177.67756909760001
3147  3  13.170433444999995  17.742557685699996  165.0207711685
3148  3  13.170433444999995  15.207906587999998  151.19039468500003
3149  3  15.36550568529999  16.475232136799995  161.2697831776
3150  3  13.170433444999995  17.742557685699996  171.34908512909999
3151  1  10.975361204999997  19.009883234999997  12.099768757
3152  1  10.975361204999997  19.009883234999997  18.138310179600001
3153  1  13.170433445299995  20.277208783799995  22.179055863000002
3154  1  13.170433445299995  20.277208783799995  28.217764580299999
3155  1  10.975361204999997  21.544534332699993  2.0203143563000001
3156  1  10.975361204999997  21.544534332699993  8.0590230736000006
3157  3  10.975361204999997  19.009883234999997  6.3284191978999997
3158  3  10.975361204999997  19.009883234999997  23.909659738700004
3159  3  13.170433445299995  20.277208783799995  16.407702453200002
3160  3  13.170433445299995  20.277208783799995  3.7509045240000005
3161  3  10.975361204999997  21.544534332699993  26.487174412600002
3162  3  10.975361204999997  21.544534332699993  13.8303764835
3163  3  10.975361204999997  19.009883234999997  0
3164  3  13.170433445299995  20.277208783799995  10.079388492600001
3165  3  10.975361204999997  21.544534332699993  20.158690444100003
3166  1  10.975361204999997  19.009883234999997  42.337847694000004
3167  1  10.975361204999997  19.009883234999997  48.376389116600009
3168  1  13.170433445299995  20.277208783799995  52.417134799999999
3169  1  13.170433445299995  20.277208783799995  58.455843517299996
3170  1  10.975361204999997  21.544534332699993  32.258393293300003
3171  1  10.975361204999997  21.544534332699993  38.2971020106
3172  3  10.975361204999997  19.009883234999997  36.566498134900009
3173  3  10.975361204999997  19.009883234999997  54.147738675700005
3174  3  13.170433445299995  20.277208783799995  46.6457813902
3175  3  13.170433445299995  20.277208783799995  33.988983461000004
3176  3  10.975361204999997  21.544534332699993  56.72525334960001
3177  3  10.975361204999997  21.544534332699993  44.068455420500008
3178  3  10.975361204999997  19.009883234999997  30.238078937000004
3179  3  13.170433445299995  20.277208783799995  40.317467429600008
3180  3  10.975361204999997  21.544534332699993  50.3967693811
3181  1  10.975361204999997  19.009883234999997  72.575926631000016
3182  1  10.975361204999997  19.009883234999997  78.614468053600021
3183  1  13.170433445299995  20.277208783799995  82.655213737000011
3184  1  13.170433445299995  20.277208783799995  88.693922454300008
3185  1  10.975361204999997  21.544534332699993  62.496472230300007
3186  1  10.975361204999997  21.544534332699993  68.535180947599997
3187  3  10.975361204999997  19.009883234999997  66.804577071900013
3188  3  10.975361204999997  19.009883234999997  84.385817612700023
3189  3  13.170433445299995  20.277208783799995  76.883860327200011
3190  3  13.170433445299995  20.277208783799995  64.227062398000001
3191  3  10.975361204999997  21.544534332699993  86.963332286600007
3192  3  10.975361204999997  21.544534332699993  74.306534357500013
3193  3  10.975361204999997  19.009883234999997  60.476157874000009
3194  3  13.170433445299995  20.277208783799995  70.555546366600012
3195  3  10.975361204999997  21.544534332699993  80.634848318100012
3196  1  10.975361204999997  19.009883234999997  102.814005568
3197  1  10.975361204999997  19.009883234999997  108.8525469906
3198  1  13.170433445299995  20.277208783799995  112.89329267400002
3199  1  13.170433445299995  20.277208783799995  118.93200139130001
3200  1  10.975361204999997  21.544534332699993  92.734551167300012
3201  1  10.975361204999997  21.544534332699993  98.773259884600023
3202  3  10.975361204999997  19.009883234999997  97.042656008900011
3203  3  10.975361204999997  19.009883234999997  114.62389654970002
3204  3  13.170433445299995  20.277208783799995  107.12193926420002
3205  3  13.170433445299995  20.277208783799995  94.465141335000027
3206  3  10.975361204999997  21.544534332699993  117.2014112236
3207  3  10.975361204999997  21.544534332699993  104.54461329450002
3208  3  10.975361204999997  19.009883234999997  90.714236810999992
3209  3  13.170433445299995  20.277208783799995  100.79362530360002
3210  3  10.975361204999997  21.544534332699993  110.87292725510002
3211  1  10.975361204999997  19.009883234999997  133.05208450500001
3212  1  10.975361204999997  19.009883234999997  139.0906259276
3213  1  13.170433445299995  20.277208783799995  143.13137161099999
3214  1  13.170433445299995  20.277208783799995  149.17008032830003
3215  1  10.975361204999997  21.544534332699993  122.97263010430002
3216  1  10.975361204999997  21.544534332699993  129.01133882159999
3217  3  10.975361204999997  19.009883234999997  127.28073494590001
3218  3  10.975361204999997  19.009883234999997  144.86197548670003
3219  3  13.170433445299995  20.277208783799995  137.36001820120001
3220  3  13.170433445299995  20.277208783799995  124.70322027200002
3221  3  10.975361204999997  21.544534332699993  147.4394901606
3222  3  10.975361204999997  21.544534332699993  134.78269223149999
3223  3  10.975361204999997  19.009883234999997  120.95231574800002
3224  3  13.170433445299995  20.277208783799995  131.03170424059999
3225  3  10.975361204999997  21.544534332699993  141.11100619210001
3226  1  10.975361204999997  19.009883234999997  163.29016344199999
3227  1  10.975361204999997  19.009883234999997  169.32870486460001
3228  1  13.170433445299995  20.277208783799995  173.369450548
3229  1  13.170433445299995  20.277208783799995  179.40815926530004
3230  1  10.975361204999997  21.544534332699993  153.21070904129999
3231  1  10.975361204999997  21.544534332699993  159.2494177586
3232  3  10.975361204999997  19.009883234999997  157.51881388289999
3233  3  10.975361204999997  19.009883234999997  175.10005442369999
3234  3  13.170433445299995  20.277208783799995  167.59809713819999
3235  3  13.170433445299995  20.277208783799995  154.94129920899999
3236  3  10.975361204999997  21.544534332699993  177.67756909760001
3237  3  10.975361204999997  21.544534332699993  165.0207711685
3238  3  10.975361204999997  19.009883234999997  151.19039468500003
3239  3  13.170433445299995  20.277208783799995  161.2697831776
3240  3  10.975361204999997  21.544534332699993  171.34908512909999
