15
Lattice="4.389266674785765 1.5227584937897308e-17 -3.5606230619248497e-17 -2.1946333373928826 3.80121644434869 -3.378952308555528e-14 2.8822119508444417e-15 -1.0141623476159255e-13 30.246125268969006" Properties=species:S:1:pos:R:3:forces:R:3:stresses:R:9 energy=-59.066125147448005 stress="-2.96752303121961e-06 -1.417978968217967e-16 3.1822664884904194e-16 -1.417978968217967e-16 -2.9675230969622048e-06 -5.503204012963891e-14 3.1822664884904194e-16 -5.503204012963891e-14 -7.377081714696951e-07" pbc="T T T"
Te      -0.00000000       0.00000000      -0.00155036       0.00000000      -0.00000000       0.00000909       0.00039746       0.00000000      -0.00000000       0.00000000       0.00039746       0.00000000      -0.00000000       0.00000000       0.00056269
Bi      -0.00000000       2.53414430       1.72977654       0.00000000       0.00000000       0.00004208       0.00042826       0.00000000       0.00000000       0.00000000       0.00042826       0.00000000       0.00000000       0.00000000       0.00057123
Te       2.19463334       1.26707215       3.75099585      -0.00000000      -0.00000000       0.00000000      -0.00165044       0.00000000      -0.00000000       0.00000000      -0.00165044       0.00000000      -0.00000000       0.00000000      -0.00226759
Bi      -0.00000000       0.00000000       5.77221516       0.00000000      -0.00000000      -0.00004208       0.00042826      -0.00000000      -0.00000000      -0.00000000       0.00042826       0.00000000      -0.00000000       0.00000000       0.00057123
Te      -0.00000000       2.53414430       7.50354206       0.00000000       0.00000000      -0.00000909       0.00039746      -0.00000000       0.00000000      -0.00000000       0.00039746       0.00000000       0.00000000       0.00000000       0.00056269
Te       2.19463334       1.26707215      10.08049140      -0.00000000      -0.00000000       0.00000909       0.00039746      -0.00000000       0.00000000      -0.00000000       0.00039746       0.00000000       0.00000000       0.00000000       0.00056269
Bi      -0.00000000      -0.00000000      11.81181829       0.00000000       0.00000000       0.00004208       0.00042826      -0.00000000       0.00000000      -0.00000000       0.00042826       0.00000000       0.00000000       0.00000000       0.00057123
Te      -0.00000000       2.53414430      13.83303761       0.00000000      -0.00000000      -0.00000000      -0.00165044      -0.00000000       0.00000000      -0.00000000      -0.00165044       0.00000000       0.00000000       0.00000000      -0.00226759
Bi       2.19463334       1.26707215      15.85425692      -0.00000000      -0.00000000      -0.00004208       0.00042826      -0.00000000       0.00000000      -0.00000000       0.00042826       0.00000000       0.00000000       0.00000000       0.00057123
Te      -0.00000000      -0.00000000      17.58558381       0.00000000       0.00000000      -0.00000909       0.00039746      -0.00000000       0.00000000      -0.00000000       0.00039746       0.00000000       0.00000000       0.00000000       0.00056269
Te      -0.00000000       2.53414430      20.16253316       0.00000000      -0.00000000       0.00000909       0.00039746       0.00000000      -0.00000000       0.00000000       0.00039746       0.00000000      -0.00000000       0.00000000       0.00056269
Bi       2.19463334       1.26707215      21.89386005      -0.00000000       0.00000000       0.00004208       0.00042826       0.00000000      -0.00000000       0.00000000       0.00042826       0.00000000      -0.00000000       0.00000000       0.00057123
Te      -0.00000000      -0.00000000      23.91507936       0.00000000       0.00000000       0.00000000      -0.00165044       0.00000000      -0.00000000       0.00000000      -0.00165044       0.00000000      -0.00000000       0.00000000      -0.00226759
Bi      -0.00000000       2.53414430      25.93629868       0.00000000      -0.00000000      -0.00004208       0.00042826       0.00000000      -0.00000000       0.00000000       0.00042826       0.00000000      -0.00000000       0.00000000       0.00057123
Te       2.19463334       1.26707215      27.66762557      -0.00000000       0.00000000      -0.00000909       0.00039746       0.00000000      -0.00000000       0.00000000       0.00039746       0.00000000      -0.00000000       0.00000000       0.00056269
