15
Lattice="4.243044775158489 -1.9484410085335243e-17 4.707641387975248e-17 -2.1215223875792444 3.6745845646823554 -3.645775662015776e-15 -8.625433011538742e-15 -1.1574284991611116e-12 30.118100247893416" Properties=species:S:1:pos:R:3:forces:R:3:stresses:R:9 energy=-60.97282318504928 stress="2.2643124587786064e-07 1.3404588677556648e-16 -3.3430212117459766e-16 1.3404588677556648e-16 2.264312576234874e-07 -9.4743174195065e-15 -3.3430212117459766e-16 -9.4743174195065e-15 9.810557727956122e-08" pbc="T T T"
Te       0.00000000       0.00000000      -0.06389575      -0.00000000      -0.00000000       0.00001038      -0.00028507      -0.00000000       0.00000000      -0.00000000      -0.00028507       0.00000000       0.00000000       0.00000000      -0.00044774
Sb       0.00000000       2.44972304       1.62984683      -0.00000000      -0.00000000      -0.00001454       0.00156744      -0.00000000       0.00000000      -0.00000000       0.00156744      -0.00000000       0.00000000      -0.00000000       0.00232850
Te       2.12152239       1.22486152       3.56076062       0.00000000       0.00000000       0.00000000      -0.00256482      -0.00000000       0.00000000      -0.00000000      -0.00256482       0.00000000       0.00000000       0.00000000      -0.00376154
Sb       0.00000000      -0.00000000       5.49167441      -0.00000000       0.00000000       0.00001454       0.00156744       0.00000000       0.00000000       0.00000000       0.00156744      -0.00000000       0.00000000      -0.00000000       0.00232850
Te       0.00000000       2.44972304       7.18541699      -0.00000000      -0.00000000      -0.00001038      -0.00028507       0.00000000      -0.00000000       0.00000000      -0.00028507       0.00000000      -0.00000000       0.00000000      -0.00044774
Te       2.12152239       1.22486152       9.97547100       0.00000000      -0.00000000       0.00001038      -0.00028507       0.00000000      -0.00000000       0.00000000      -0.00028507       0.00000000      -0.00000000       0.00000000      -0.00044774
Sb       0.00000000      -0.00000000      11.66921358      -0.00000000       0.00000000      -0.00001454       0.00156744       0.00000000      -0.00000000       0.00000000       0.00156744       0.00000000      -0.00000000       0.00000000       0.00232850
Te       0.00000000       2.44972304      13.60012737      -0.00000000      -0.00000000      -0.00000000      -0.00256482       0.00000000      -0.00000000       0.00000000      -0.00256482       0.00000000      -0.00000000       0.00000000      -0.00376154
Sb       2.12152239       1.22486152      15.53104116       0.00000000      -0.00000000       0.00001454       0.00156744       0.00000000      -0.00000000       0.00000000       0.00156744       0.00000000      -0.00000000       0.00000000       0.00232850
Te       0.00000000      -0.00000000      17.22478374      -0.00000000       0.00000000      -0.00001038      -0.00028507       0.00000000      -0.00000000       0.00000000      -0.00028507       0.00000000      -0.00000000       0.00000000      -0.00044774
Te       0.00000000       2.44972304      20.01483775      -0.00000000      -0.00000000       0.00001038      -0.00028507      -0.00000000       0.00000000      -0.00000000      -0.00028507       0.00000000       0.00000000       0.00000000      -0.00044774
Sb       2.12152239       1.22486152      21.70858033       0.00000000       0.00000000      -0.00001454       0.00156744      -0.00000000       0.00000000      -0.00000000       0.00156744       0.00000000       0.00000000       0.00000000       0.00232850
Te       0.00000000      -0.00000000      23.63949412      -0.00000000       0.00000000       0.00000000      -0.00256482      -0.00000000       0.00000000      -0.00000000      -0.00256482       0.00000000       0.00000000       0.00000000      -0.00376154
Sb       0.00000000       2.44972304      25.57040791      -0.00000000      -0.00000000       0.00001454       0.00156744      -0.00000000       0.00000000      -0.00000000       0.00156744       0.00000000       0.00000000       0.00000000       0.00232850
Te       2.12152239       1.22486152      27.26415049       0.00000000       0.00000000      -0.00001038      -0.00028507      -0.00000000       0.00000000      -0.00000000      -0.00028507       0.00000000       0.00000000       0.00000000      -0.00044774
