15
Lattice="4.316209955213418 1.4974130890786725e-17 -3.5678389074264136e-17 -2.158104977606709 3.7379474692818855 -3.385799985883807e-14 2.8822119508444417e-15 -1.0141623476159255e-13 30.82040837556803" Properties=species:S:1:pos:R:3:forces:R:3:stresses:R:9 energy=-59.01265585746013 stress="-0.0063940729473426485 -4.9389220919731775e-17 1.3696842605058518e-16 -4.9389220919731775e-17 -0.006394072947371483 -1.5208712295132123e-14 1.3696842605058518e-16 -1.5208712295132123e-14 2.3134025418610142e-07" pbc="T T T"
Te      -0.00000000      -0.00000000      30.82247425       0.00000000       0.00000002       0.00000818       0.00075752       0.00000000      -0.00000000       0.00000000       0.00075752      -0.00000000      -0.00000000      -0.00000000       0.00045496
Bi       0.00000000       2.49196498       1.76533431      -0.00000000      -0.00000001      -0.00001688       0.00085603       0.00000000       0.00000000       0.00000000       0.00085603      -0.00000000       0.00000000      -0.00000000       0.00074103
Te       2.15810498       1.24598249       3.82221600      -0.00000001      -0.00000000      -0.00000000      -0.00109573       0.00000000      -0.00000000       0.00000000      -0.00109573      -0.00000000      -0.00000000      -0.00000000      -0.00239205
Bi       0.00000000      -0.00000000       5.87909769      -0.00000000       0.00000001       0.00001688       0.00085603      -0.00000000      -0.00000000      -0.00000000       0.00085603      -0.00000000      -0.00000000      -0.00000000       0.00074103
Te      -0.00000000       2.49196498       7.64236613       0.00000000      -0.00000002      -0.00000818       0.00075752      -0.00000000       0.00000000      -0.00000000       0.00075752      -0.00000000       0.00000000      -0.00000000       0.00045496
Te       2.15810498       1.24598249      10.27553533      -0.00000001      -0.00000000       0.00000819       0.00075752      -0.00000000       0.00000000      -0.00000000       0.00075752       0.00000000       0.00000000       0.00000000       0.00045496
Bi      -0.00000000       0.00000000      12.03880377       0.00000001       0.00000001      -0.00001688       0.00085603      -0.00000000       0.00000000      -0.00000000       0.00085603       0.00000000       0.00000000       0.00000000       0.00074103
Te       0.00000000       2.49196498      14.09568546       0.00000000      -0.00000001      -0.00000002      -0.00109573      -0.00000000       0.00000000      -0.00000000      -0.00109573       0.00000000       0.00000000       0.00000000      -0.00239205
Bi       2.15810498       1.24598249      16.15256714      -0.00000001      -0.00000001       0.00001689       0.00085603      -0.00000000       0.00000000      -0.00000000       0.00085603       0.00000000       0.00000000       0.00000000       0.00074103
Te      -0.00000000      -0.00000000      17.91583558       0.00000001       0.00000001      -0.00000818       0.00075752      -0.00000000       0.00000000      -0.00000000       0.00075752       0.00000000       0.00000000       0.00000000       0.00045496
Te      -0.00000000       2.49196498      20.54900479       0.00000001      -0.00000001       0.00000818       0.00075752       0.00000000      -0.00000000       0.00000000       0.00075752       0.00000000      -0.00000000       0.00000000       0.00045496
Bi       2.15810498       1.24598249      22.31227323      -0.00000001       0.00000001      -0.00001689       0.00085603       0.00000000      -0.00000000       0.00000000       0.00085603       0.00000000      -0.00000000       0.00000000       0.00074103
Te       0.00000000       0.00000000      24.36915491       0.00000000       0.00000001       0.00000002      -0.00109573       0.00000000      -0.00000000       0.00000000      -0.00109573       0.00000000      -0.00000000       0.00000000      -0.00239205
Bi      -0.00000000       2.49196498      26.42603661       0.00000001      -0.00000001       0.00001688       0.00085603       0.00000000      -0.00000000       0.00000000       0.00085603       0.00000000      -0.00000000       0.00000000       0.00074103
Te       2.15810498       1.24598249      28.18930505      -0.00000001       0.00000000      -0.00000819       0.00075752       0.00000000      -0.00000000       0.00000000       0.00075752       0.00000000      -0.00000000       0.00000000       0.00045496
