15
Lattice="4.316209955213418 -1.9820390601144056e-17 4.683597541621928e-17 -2.158104977606709 3.7379474692823913 -3.627155197406877e-15 -8.625433011538742e-15 -1.1574284991611116e-12 29.456342720601047" Properties=species:S:1:pos:R:3:forces:R:3:stresses:R:9 energy=-60.91863265762155 stress="0.006688864650684376 9.930238783361627e-17 -2.159359750767216e-16 9.930238783361627e-17 0.00668886465070382 1.61263918922511e-15 -2.159359750767216e-16 1.61263918922511e-15 -2.455159880280876e-06" pbc="T T T"
Te       2.15810498       3.73794748      29.37684274       0.00000002      -0.00000005      -0.00002590      -0.00067851       0.00000000      -0.00000000       0.00000000      -0.00067851       0.00000000      -0.00000000       0.00000000      -0.00028688
Sb      -0.00000000       2.49196497       1.58505992       0.00000001       0.00000005       0.00005323       0.00113375       0.00000000       0.00000000       0.00000000       0.00113375       0.00000000       0.00000000       0.00000000       0.00202296
Te       2.15810499       1.24598249       3.48252328      -0.00000005      -0.00000000      -0.00000000      -0.00314010      -0.00000000       0.00000000      -0.00000000      -0.00314010       0.00000000       0.00000000       0.00000000      -0.00347134
Sb      -0.00000000       0.00000001       5.37998663       0.00000001      -0.00000005      -0.00005323       0.00113375      -0.00000000      -0.00000000      -0.00000000       0.00113375       0.00000000      -0.00000000       0.00000000       0.00202296
Te      -0.00000000       2.49196497       7.04454654       0.00000002       0.00000005       0.00002590      -0.00067851      -0.00000000       0.00000000      -0.00000000      -0.00067851       0.00000000       0.00000000       0.00000000      -0.00028688
Te       2.15810499       1.24598249       9.73928092      -0.00000005       0.00000001      -0.00002590      -0.00067851      -0.00000000       0.00000000      -0.00000000      -0.00067851       0.00000000       0.00000000       0.00000000      -0.00028688
Sb      -0.00000000       0.00000000      11.40384083       0.00000003      -0.00000003       0.00005323       0.00113375      -0.00000000       0.00000000      -0.00000000       0.00113375      -0.00000000       0.00000000      -0.00000000       0.00202296
Te      -0.00000000       2.49196497      13.30130418       0.00000002       0.00000005       0.00000000      -0.00314010      -0.00000000       0.00000000      -0.00000000      -0.00314010      -0.00000000       0.00000000      -0.00000000      -0.00347134
Sb       2.15810499       1.24598249      15.19876754      -0.00000004       0.00000001      -0.00005323       0.00113375      -0.00000000       0.00000000      -0.00000000       0.00113375      -0.00000000       0.00000000      -0.00000000       0.00202296
Te      -0.00000000       0.00000001      16.86332745       0.00000003      -0.00000004       0.00002590      -0.00067851      -0.00000000       0.00000000      -0.00000000      -0.00067851      -0.00000000       0.00000000      -0.00000000      -0.00028688
Te      -0.00000000       2.49196497      19.55806183       0.00000003       0.00000004      -0.00002590      -0.00067851       0.00000000      -0.00000000       0.00000000      -0.00067851      -0.00000000      -0.00000000      -0.00000000      -0.00028688
Sb       2.15810499       1.24598249      21.22262174      -0.00000004      -0.00000001       0.00005323       0.00113375       0.00000000      -0.00000000       0.00000000       0.00113375      -0.00000000      -0.00000000      -0.00000000       0.00202296
Te      -0.00000000       0.00000001      23.12008509       0.00000002      -0.00000005       0.00000000      -0.00314010       0.00000000      -0.00000000       0.00000000      -0.00314010      -0.00000000      -0.00000000      -0.00000000      -0.00347134
Sb      -0.00000000       2.49196497      25.01754844       0.00000003       0.00000003      -0.00005323       0.00113375       0.00000000      -0.00000000       0.00000000       0.00113375      -0.00000000      -0.00000000      -0.00000000       0.00202296
Te       2.15810499       1.24598249      26.68210835      -0.00000005      -0.00000001       0.00002590      -0.00067851       0.00000000      -0.00000000       0.00000000      -0.00067851       0.00000000      -0.00000000       0.00000000      -0.00028688
