! Set=C11  delta=delta_-0.004  [SCF from relaxed]
&CONTROL
   calculation      = 'scf'
   verbosity        = 'high'
   restart_mode     = 'from_scratch'
   tstress          = .true.
   tprnfor          = .true.
   outdir           = './'
   etot_conv_thr    = 1e-10
   forc_conv_thr    = 1e-10
   disk_io          = 'none'
   pseudo_dir       = '/home/IITB/multiscale-mechanics/amit.k.singh/PP/PBE_ONCV/'
/
&SYSTEM
   ibrav            = 0
   nat              = 15
   ntyp             = 2
   ecutwfc          = 120.0
   occupations      = 'smearing'
   degauss          = 0.01
   smearing         = 'mp'
   vdw_corr         = 'grimme-d3'
   dftd3_version    = 4
   dftd3_threebody  = .true.
/
&ELECTRONS
   electron_maxstep = 400
   conv_thr         = 1e-12
   mixing_beta      = 0.3
/
&IONS
/
&CELL
/
&FCP
/
&RISM
/
ATOMIC_SPECIES
Bi 208.9804 Bi.UPF
Te 127.6 Te.UPF

K_POINTS automatic
12 12 1  0 0 0

CELL_PARAMETERS angstrom
4.37233500367200 0.00000000000000 0.00000000000000
-2.18616750084000 3.78655318708800 0.00000000000000
0.00000000000000 0.00000000000000 30.24285379700000

ATOMIC_POSITIONS angstrom
Bi  -0.0000000000  -0.0000000000  12.1034994794
Bi  0.0000000000  -0.0000000000  18.1393543172
Bi  2.1861675015  1.2621843955  22.1843830262
Bi  2.1861675015  1.2621843955  28.2204320706
Bi  -0.0000000000  2.5243687910  2.0224217261
Bi  -0.0000000000  2.5243687910  8.0584707704
Te  0.0000000000  -0.0000000000  6.3208941427
Te  0.0000000000  -0.0000000000  23.9219596540
Te  2.1861675015  1.2621843955  16.4018465510
Te  2.1861675015  1.2621843955  3.7598993331
Te  -0.0000000000  2.5243687910  26.4829544636
Te  -0.0000000000  2.5243687910  13.8410072457
Te  -0.0000000000  0.0000000000  0.0000000000
Te  2.1861675015  1.2621843955  10.0810397057
Te  -0.0000000000  2.5243687910  20.1618140910
