! Set=C33  delta=delta_-0.002  [SCF from relaxed]
&CONTROL
   calculation      = 'scf'
   verbosity        = 'high'
   restart_mode     = 'from_scratch'
   tstress          = .true.
   tprnfor          = .true.
   outdir           = './'
   etot_conv_thr    = 1e-10
   forc_conv_thr    = 1e-10
   disk_io          = 'none'
   pseudo_dir       = '/home/IITB/multiscale-mechanics/amit.k.singh/PP/PBE_ONCV/'
/
&SYSTEM
   ibrav            = 0
   nat              = 15
   ntyp             = 2
   ecutwfc          = 120.0
   occupations      = 'smearing'
   degauss          = 0.01
   smearing         = 'mp'
   vdw_corr         = 'grimme-d3'
   dftd3_version    = 4
   dftd3_threebody  = .true.
/
&ELECTRONS
   electron_maxstep = 400
   conv_thr         = 1e-12
   mixing_beta      = 0.3
/
&IONS
/
&CELL
/
&FCP
/
&RISM
/
ATOMIC_SPECIES
Bi 208.9804 Bi.UPF
Te 127.6 Te.UPF

K_POINTS automatic
12 12 1  0 0 0

CELL_PARAMETERS angstrom
4.38989458200000 0.00000000000000 0.00000000000000
-2.19494729000000 3.80176022800000 0.00000000000000
0.00000000000000 0.00000000000000 30.18236808940600

ATOMIC_POSITIONS angstrom
Bi  -0.0000000000  -0.0000000000  12.0786083191
Bi  -0.0000000000  0.0000000000  18.1037597699
Bi  2.1949472907  1.2672534091  22.1392953068
Bi  2.1949472907  1.2672534091  28.1646826895
Bi  0.0000000000  2.5345068183  2.0176853996
Bi  0.0000000000  2.5345068183  8.0430727822
Te  -0.0000000000  0.0000000000  6.3129705406
Te  -0.0000000000  -0.0000000000  23.8693975485
Te  2.1949472907  1.2672534091  16.3736929334
Te  2.1949472907  1.2672534091  3.7477132291
Te  0.0000000000  2.5345068183  26.4346548600
Te  0.0000000000  2.5345068183  13.8086751557
Te  0.0000000000  0.0000000000  0.0000000000
Te  2.1949472907  1.2672534091  10.0608832527
Te  0.0000000000  2.5345068183  20.1214848364
