14000
Time=0.00000000 pbc="T T T" Lattice="42.93608639 -0.02117228 0.03108945 -30.10345406 52.11020090 0.31212278 -0.04006434 0.07820481 205.61306764" energy=-55902.89259291 virial="-0.08543219 -0.00404309 -0.01059987 -0.00404309 0.13900838 -0.02608033 -0.01059987 -0.02608033 -0.09741997" stress="0.00078118 0.00001033 0.00001104 0.00001033 0.00078723 -0.00000214 0.00001104 -0.00000214 0.00079237" Properties=species:S:1:pos:R:3
Te 1.91859631 1.94964206 201.31317449
Bi -0.17819442 0.72705234 203.19576650
Te -0.08947032 3.24851987 205.19120479
Bi 1.99336309 1.85513457 1.73820359
Te -0.21464306 0.57060870 3.36117173
Te 2.20874372 1.94844934 6.38632272
Bi 0.15606929 0.75700597 8.34697585
Te 0.30355769 3.31383556 10.27973289
Bi 2.28345647 1.96471973 12.48480283
Te 0.04203072 0.64907592 14.02961490
Te 2.15333238 1.55245476 17.08436833
Bi 0.09975390 0.36747902 19.04750944
Te 0.25688700 2.92802647 20.97309078
Bi 2.22758594 1.56999778 23.18509882
Te -0.01809043 0.25499140 24.72528076
Te 1.85848277 1.51279557 27.80260480
Bi 42.74725246 0.30082488 29.79650579
Te -0.02828906 2.88588510 31.68697385
Bi 1.93865770 1.52609265 33.90132360
Te 42.62557958 0.19364602 35.47063821
Te 1.57131156 1.47047704 38.51629140
Bi 42.45739525 0.26245626 40.50915187
Te -0.32136269 2.84622903 42.40204061
Bi 1.64979341 1.49183674 44.61286323
Te 42.34236996 0.15256893 46.18337083
Te 1.52221780 1.07870108 49.20701380
Bi 12.29952050 51.98623519 51.51312826
Te -0.37864054 2.45683718 53.09726025
Bi 1.59570977 1.10385699 55.30605940
Te 12.18766077 51.87146767 57.19003312
Te 1.46509348 0.69170937 59.90281167
Bi 12.24548059 51.59359194 62.20910876
Te -0.42983179 2.06467430 63.79127758
Bi 1.54071019 0.70743517 66.00287440
Te 12.12625303 51.48485572 67.88707337
Te 1.34298257 0.36662816 70.61725296
Bi 12.12903863 51.25935921 72.91890924
Te -0.55049699 1.72936958 74.50386596
Bi 1.42826521 0.37722689 76.71031623
Te 12.01460808 51.16053285 78.59760610
Te 1.68947626 0.50120063 81.29965055
Bi 12.44328610 51.37825898 83.54934054
Te -0.28846493 1.81786547 85.18548739
Bi 1.75285426 0.50200380 87.33349884
Te 12.37578359 51.30492850 89.29468973
Te 3.94149311 1.74017552 91.69923125
Bi 1.75120566 0.46508199 93.35971876
Te 1.69274748 2.90072835 95.49876176
Bi 3.89301184 1.67751405 97.50955103
Te 1.78141677 0.44685490 99.35675506
Te 12.41659457 51.25073133 102.36144341
Sb -0.41679129 1.63337991 103.70192562
Te 1.72575951 0.37743317 105.60982848
Sb 12.41535583 51.21725332 107.86044536
Te -0.41887827 1.59940846 109.20142276
Te 1.72220728 0.33777967 111.92072055
Sb 1.71713529 2.80693309 113.60924550
Te 3.86269571 1.55277282 115.50905927
Sb 1.71359689 0.30012387 117.40556756
Te 1.70871470 2.76938706 119.09404067
Te -0.44040495 1.51182705 121.81272771
Sb -0.44494903 3.98128818 123.50075986
Te 1.70023704 2.72690651 125.40141159
Sb -0.44830223 1.47457505 127.29892674
Te -0.45282708 3.94404698 128.98695877
Te 12.38045989 51.05308653 132.02622294
Sb -0.45666110 1.43355141 133.37099449
Te 1.68848589 0.17914651 135.27173732
Sb 12.37264320 51.01587972 137.51258088
Te -0.46447549 1.39634598 138.85735215
Te 1.67948492 0.13636460 141.57876437
Sb 1.67500449 2.60586304 143.26674045
Te 3.82014563 1.35145459 145.16749717
Sb 1.67167985 0.09916432 147.06514516
Te 1.66719923 2.56866263 148.75312144
Te -0.48245459 1.31079505 151.47141990
Sb -0.48693557 3.78029304 153.15939654
Te 1.65820604 2.52588494 155.06015227
Sb -0.49026043 1.27359432 156.95779875
Te -0.49474135 3.74309214 158.64577638
Te 12.33848318 50.85209538 161.68498531
Sb -0.49862919 1.23256535 163.02975049
Te -28.45694297 52.08835754 165.24262622
Sb 12.33067842 50.81489506 167.17137120
Te -0.50643325 1.19536542 168.51612219
Te -28.46592959 52.04558195 171.54979375
Sb 1.63304532 2.40488008 172.92559841
Te 3.77818563 1.15047043 174.82645984
Sb -28.47375390 52.00837419 177.03603708
Te 1.62522882 2.36767500 178.41223129
Te -0.52418781 1.10994934 181.12665422
Sb -0.52908113 3.57919093 182.81652928
Te 1.61656884 2.32507651 184.71635063
Sb -0.53190413 1.07280707 186.61522663
Te -0.53704139 3.54212392 188.29045004
Te -0.13876710 0.81970417 191.47740371
Sb -0.14858732 3.28630874 193.15839172
Te 2.00254236 2.03531159 195.05469036
Sb -0.15593890 0.77739499 196.93239829
Te -0.16546288 3.24396977 198.62224051
Te -0.23165027 5.67179970 201.33546829
Bi -2.32844168 4.44920993 203.21805979
Te -2.23971706 6.97067679 205.21349889
Bi -0.15688384 5.57729185 1.76049817
Te -2.36489024 4.29276571 3.38346561
Te 0.05849650 5.67060720 6.40861640
Bi -1.99417777 4.47916321 8.36926942
Te -1.84668923 7.03599272 10.30202693
Bi 0.13320951 5.68687702 12.50709659
Te -2.10821615 4.37123299 14.05190850
Te 0.00308502 5.27461286 17.10666202
Bi -2.05049324 4.08963657 19.06980286
Te -1.89336002 6.65018387 20.99538465
Bi 0.07733903 5.29215496 23.20739244
Te -2.16833721 3.97714824 24.74757420
Te -0.29176444 5.23495336 27.82489825
Bi 40.59700525 4.02298240 29.81879909
Te -2.17853599 6.60804233 31.70926748
Bi -0.21158920 5.24824978 33.92361738
Te 40.47533252 3.91580311 35.49293154
Te -0.57893557 5.19263475 38.53858474
Bi 40.30714796 3.98461373 40.53144496
Te -2.47160958 6.56838648 42.42433423
Bi -0.50045350 5.21399392 44.63515713
Te 40.19212276 3.87472618 46.20566450
Te -0.62802929 4.80085883 49.22930718
Bi 40.25272743 3.59819154 51.22329852
Te -2.52888734 6.17899435 53.11955383
Bi -0.55453709 4.82601442 55.32835283
Te 40.14086770 3.48342412 56.90020385
Te -0.68515385 4.41386717 59.92510513
Bi 40.19868738 3.20554867 61.91927948
Te -2.58007875 5.78683156 63.81357134
Bi -0.60953686 4.42959257 66.02516827
Te 40.07945999 3.09681202 67.59724433
Te -0.80726450 4.08878549 70.63954660
Bi 40.08224543 2.87131594 72.62908007
Te -2.70074394 5.45152702 74.52615979
Bi -0.72198175 4.09938440 76.73261014
Te 39.96781503 2.77248959 78.30777713
Te -0.46077084 4.22335798 81.32194449
Bi 40.39649304 2.99021569 83.25951179
Te -2.43871193 5.54002299 85.20778148
Bi -0.39739269 4.22416122 87.35579280
Te 40.32899054 2.91688495 89.00486088
Te 1.79124629 5.46233292 91.72152547
Bi -0.39904148 4.18723929 93.38201272
Te -0.45749927 6.62288545 95.52105595
Bi 1.74276503 5.39967146 97.53184544
Te -0.36883024 4.16901234 99.37904927
Te 40.36980151 2.86268794 102.07161468
Sb -2.56703811 5.35553734 103.72421990
Te -0.42448750 4.09959043 105.63212262
Sb 40.36856293 2.82921007 107.57061659
Te -2.56912513 5.32156573 109.22371705
Te -0.42803975 4.05993723 111.94301474
Sb -0.43311152 6.52909048 113.63153986
Te 1.71244879 5.27493031 115.53135347
Sb -0.43665011 4.02228128 117.42786175
Te -0.44153200 6.49154441 119.11633515
Te -2.59065192 5.23398452 121.83502178
Sb -2.59519593 7.70344557 123.52305408
Te -0.45000983 6.44906408 125.42370588
Sb -2.59854906 5.19673234 127.32122095
Te -2.60307404 7.66620427 129.00925325
Te 40.33366680 2.66504304 131.73639425
Sb -2.60690808 5.15570882 133.39328855
Te -0.46176113 3.90130397 135.29403145
Sb 40.32585029 2.62783623 137.22275224
Te -2.61472239 5.11850322 138.87964640
Te -0.47076213 3.85852209 141.60105849
Sb -0.47524242 6.32802036 143.28903466
Te 1.66989884 5.07361208 145.18979115
Sb -0.47856692 3.82132180 147.08743908
Te -0.48304770 6.29081985 148.77541558
Te -2.63270154 5.03295242 151.49371399
Sb -2.63718258 7.50245031 153.18169090
Te -0.49204094 6.24804232 155.08244662
Sb -2.64050742 4.99575162 156.98009317
Te -2.64498821 7.46524946 158.66807075
Te 40.29169013 2.46405190 161.39515649
Sb -2.64887612 4.95472279 163.05204453
Te -0.50373608 3.70031413 164.95279747
Sb 40.28388526 2.42685142 166.88154236
Te -2.65668024 4.91752299 168.53841638
Te -0.51272254 3.65753855 171.25996498
Sb -0.51720168 6.12703762 172.94789251
Te 1.62793863 4.87262789 174.84875390
Sb -0.52054695 3.62033067 176.74620834
Te -0.52501814 6.08983237 178.43452558
Te -2.67443498 4.83210681 181.14894808
Sb -2.67932800 7.30134839 182.83882341
Te -0.53367800 6.04723394 184.73864456
Sb -2.68215092 4.79496443 186.63752051
Te -2.68728829 7.26428120 188.31274419
Te -2.28901414 4.54186170 191.49969760
Sb -2.29883439 7.00846623 193.18068546
Te -0.14770458 5.75746928 195.07698422
Sb -2.30618583 4.49955240 196.95469207
Te -2.31570967 6.96612714 198.64453453
Te -2.38189731 9.39395715 201.35776272
Bi -4.47868842 8.17136738 203.24035433
Te -4.38996404 10.69283447 205.23579301
Bi -2.30713068 9.29944910 1.78279179
Te -4.51513694 8.01492328 3.40575979
Te -2.09175030 9.39276488 6.43091085
Bi -4.14442477 8.20132083 8.39156349
Te -3.99693594 10.75815008 10.32432105
Bi -2.01703706 9.40903412 12.52939067
Te -4.25846293 8.09339021 14.07420273
Te -2.14716180 8.99677037 17.12895608
Bi -4.20074027 7.81179403 19.09209671
Te -4.04360679 10.37234104 21.01767900
Bi -2.07290768 9.01431198 23.22968649
Te -4.31858404 7.69930552 24.76986820
Te -2.44201149 8.95711101 27.84719216
Bi 38.44675831 7.74513981 29.84109310
Te -4.32878283 10.33019979 31.73156180
Bi -2.36183604 8.97040673 33.94591120
Te 38.32508563 7.63796008 35.51522545
Te -2.72918267 8.91479255 38.56087867
Bi 38.15690093 7.70677102 40.55373889
Te -4.62185651 10.29054351 42.44662832
Bi -2.65070047 8.93615103 44.65745128
Te 38.04187592 7.59688307 46.22795844
Te -2.77827626 8.52301642 49.25160113
Bi 38.10248049 7.32034913 51.24559248
Te -4.67913440 9.90115171 53.14184793
Bi -2.70478385 8.54817146 55.35064664
Te 37.99062079 7.20558135 56.92249762
Te -2.83540076 8.13602464 59.94739913
Bi 38.04844035 6.92770610 61.94157320
Te -4.73032552 9.50898880 63.83586532
Bi -2.75978383 8.15174960 66.04746230
Te 37.92921302 6.81896930 67.61953807
Te -2.95751157 7.81094308 70.66184065
Bi 37.93199830 6.59347312 72.65137390
Te -4.85099088 9.17368414 74.54845385
Bi -2.87222889 7.82154151 76.75490446
Te 37.81756792 6.49464658 78.33007112
Te -2.61101780 7.94551554 81.34423848
Bi 38.24624613 6.71237306 83.28180583
Te -4.58895864 9.26218026 85.23007563
Bi -2.54763950 7.94631848 87.37808717
Te 38.17874355 6.63904229 89.02715508
Te -0.35900048 9.18449013 91.74381974
Bi -2.54928821 7.90939660 93.40430722
Te -2.60774610 10.34504287 95.54335035
Bi -0.40748179 9.12182858 97.55413970
Te -2.51907702 7.89116954 99.40134349
Te 38.21955469 6.58484540 102.09390900
Sb -4.71728499 9.07769462 103.74651432
Te -2.57473438 7.82174777 105.65441692
Sb 38.21831606 6.55136742 107.59291103
Te -4.71937210 9.04372304 109.24601146
Te -2.57828663 7.78209470 111.96530911
Sb -2.58335828 10.25124761 113.65383428
Te -0.43779801 8.99708742 115.55364785
Sb -2.58689700 7.74443866 117.45015593
Te -2.59177876 10.21370160 119.13862952
Te -4.74089869 8.95614188 121.85731615
Sb -4.74544278 11.42560284 123.54534851
Te -2.60025675 10.17122130 125.44600023
Sb -4.74879584 8.91888963 127.34351553
Te -4.75332080 11.38836146 129.03154778
Te 38.18341983 6.38720043 131.75868827
Sb -4.75715490 8.87786604 133.41558276
Te -2.61200793 7.62346131 135.31632573
Sb 38.17560344 6.34999361 137.24504635
Te -4.76496916 8.84066052 138.90194067
Te -2.62100902 7.58067946 141.62335261
Sb -2.62548916 10.05017774 143.31132907
Te -0.48034804 8.79576939 145.21208546
Sb -2.62881384 7.54347905 147.10973345
Te -2.63329451 10.01297690 148.79771022
Te -4.78294846 8.75510985 151.51600848
Sb -4.78742922 11.22460747 153.20398540
Te -2.64228781 9.97019950 155.10474099
Sb -4.79075418 8.71790898 157.00238744
Te -4.79523484 11.18740677 158.69036524
Te 38.14144320 6.18620924 161.41745054
Sb -4.79912294 8.67688005 163.07433881
Te -2.65398264 7.42247145 164.97509186
Sb 38.13363838 6.14900900 166.90383656
Te -4.80692716 8.63968025 168.56071071
Te -2.66296947 7.37969591 171.28225894
Sb -2.66744861 9.84919505 172.97018683
Te -0.52230832 8.59478517 174.87104812
Sb -2.67079369 7.34248816 176.76850270
Te -2.67526495 9.81198957 178.45681994
Te -4.82468174 8.55426430 181.17124219
Sb -4.82957485 11.02350556 182.86111762
Te -2.68392480 9.76939120 184.76093879
Sb -4.83239765 8.51712163 186.65981477
Te -4.83753487 10.98643824 188.33503848
Te -4.43926116 8.26401925 191.52199166
Sb -4.44908120 10.73062368 193.20297966
Te -2.29795137 9.47962655 195.09927844
Sb -4.45643286 8.22170979 196.97698616
Te -4.46595648 10.68828433 198.66682869
Te -4.53214405 13.11611466 201.38005701
Bi -6.62893536 11.89352473 203.26264830
Te -6.54021063 14.41499147 205.25808752
Bi -4.45737733 13.02160642 1.80508643
Te -6.66538361 11.73708038 3.42805413
Te -4.24199692 13.11492222 6.45320510
Bi -6.29467131 11.92347812 8.41385778
Te -6.14718239 14.48030745 10.34661580
Bi -4.16728354 13.13119108 12.55168521
Te -6.40870947 11.81554699 14.09649700
Te -4.29740886 12.71892811 17.15125069
Bi -6.35098697 11.53395144 19.11439125
Te -6.19385336 14.09449823 21.03997349
Bi -4.22315437 12.73646906 23.25198101
Te -6.46883076 11.42146237 24.79216239
Te -4.59225824 12.67926842 27.86948668
Bi 36.29651135 11.46729722 29.86338734
Te -6.47902937 14.05235695 31.75385637
Bi -4.51208266 12.69256396 33.96820587
Te 36.17483898 11.36011704 35.53751991
Te -4.87942959 12.63694999 38.58317322
Bi 36.00665405 11.42892847 40.57603319
Te -6.77210317 14.01270069 42.46892286
Bi -4.80094731 12.65830810 44.67974542
Te 35.89162920 11.31904009 46.25025263
Te -4.92852316 12.24517395 49.27389538
Bi 35.95223361 11.04250664 51.26788648
Te -6.82938065 13.62330891 53.16414221
Bi -4.85503050 12.27032846 55.37294109
Te 35.84037413 10.92773814 56.94479174
Te -4.98564788 11.85818208 59.96969355
Bi 35.89819341 10.64986336 61.96386765
Te -6.88057215 13.23114604 63.85815977
Bi -4.91003042 11.87390674 66.06975671
Te 35.77896620 10.54112640 67.64183227
Te -5.10775873 11.53310036 70.68413495
Bi 35.78175123 10.31563054 72.67366829
Te -7.00123768 12.89584130 74.57074825
Bi -5.02247585 11.54369859 76.77719842
Te 35.66732093 10.21680367 78.35236531
Te -4.76126488 11.66767300 81.36653290
Bi 36.09599928 10.43453043 83.30410022
Te -6.73920543 12.98433761 85.25237008
Bi -4.69788646 11.66847563 87.40038145
Te 36.02849709 10.36119928 89.04944941
Te -2.50924705 12.90664748 91.76611414
Bi -4.69953513 11.63155369 93.42660148
Te -4.75799277 14.06719985 95.56564486
Bi -2.55772841 12.84398562 97.57643405
Te -4.66932369 11.61332683 99.42363795
Te 36.06930777 10.30700266 102.11620338
Sb -6.86753186 12.79985189 103.76880886
Te -4.72498102 11.54390506 105.67671149
Sb 36.06806918 10.27352465 107.61520535
Te -6.86961880 12.76587991 109.26830602
Te -4.72853335 11.50425197 111.98760369
Sb -4.73360507 13.97340489 113.67612883
Te -2.58804480 12.71924456 115.57594230
Sb -4.73714365 11.46659583 117.47245058
Te -4.74202554 13.93585879 119.16092424
Te -6.89114548 12.67829913 121.87961041
Sb -6.89568945 15.14775994 123.56764299
Te -4.75050348 13.89337838 125.46829479
Sb -6.89904269 12.64104673 127.36580991
Te -6.90356740 15.11051850 129.05384231
Te 36.03317294 10.10935772 131.78098257
Sb -6.90740187 12.60002322 133.43787696
Te -4.76225469 11.34561865 135.33862018
Sb 36.02535658 10.07215090 137.26734082
Te -6.91521580 12.56281784 138.92423513
Te -4.77125575 11.30283675 141.64564716
Sb -4.77573585 13.77233480 143.33362358
Te -2.63059470 12.51792657 145.23438012
Sb -4.77906058 11.26563625 147.13202793
Te -4.78354114 13.73513407 148.82000488
Te -6.93319514 12.47726696 151.53830294
Sb -6.93767603 14.94676464 153.22627996
Te -4.79253453 13.69235669 155.12703552
Sb -6.94100101 12.44006623 157.02468207
Te -6.94548158 14.90956401 158.71265984
Te 35.99119648 9.90836670 161.43974497
Sb -6.94936975 12.39903728 163.09663332
Te -4.80422952 11.14462866 164.99738616
Sb 35.98339165 9.87116629 166.92613081
Te -6.95717375 12.36183735 168.58300507
Te -4.81321622 11.10185339 171.30455332
Sb -4.81769523 13.57135231 172.99248125
Te -2.67255505 12.31694238 174.89334253
Sb -4.82104061 11.06464532 176.79079703
Te -4.82551170 13.53414669 178.47911440
Te -6.97492853 12.27642150 181.19353633
Sb -6.97982143 14.74566276 182.88341215
Te -4.83417143 13.49154830 184.78323324
Sb -6.98264444 12.23927867 186.68210909
Te -6.98778150 14.70859524 188.35733306
Te -6.58950781 11.98617676 191.54428593
Sb -6.59932783 14.45278106 193.22527430
Te -4.44819804 13.20178391 195.12157290
Sb -6.60667956 11.94386702 196.99928048
Te -6.61620329 14.41044156 198.68912336
Te -6.68239058 16.83827182 201.40235172
Bi -8.77918197 15.61568189 203.28494290
Te -8.69045705 18.13714861 205.28038238
Bi -6.60762389 16.74376350 1.82738077
Te -8.81563013 15.45923763 3.45034882
Te -6.39224349 16.83707961 6.47549992
Bi -8.44491788 15.64563553 8.43615267
Te -8.29742903 18.20246441 10.36891064
Bi -6.31753002 16.85334822 12.57398008
Te -8.55895608 15.53770394 14.11879186
Te -6.44765554 16.44108561 17.17354553
Bi -8.50123347 15.25610869 19.13668620
Te -8.34409990 17.81665543 21.06226845
Bi -6.37340071 16.45862637 23.27427586
Te -8.61907713 15.14361949 24.81445729
Te -6.74250493 16.40142599 27.89178132
Bi 34.14626484 15.18945454 29.88568205
Te -8.62927589 17.77451416 31.77615123
Bi -6.66232920 16.41472094 33.99050070
Te 34.02459227 15.08227398 35.55981448
Te -7.02967637 16.35910742 38.60546801
Bi 33.85640732 15.15108556 40.59832782
Te -8.92234972 17.73485780 42.49121778
Bi -6.95119386 16.38046506 44.70204021
Te 33.74138254 15.04119705 46.27254726
Te -7.07876998 15.96733128 49.29618989
Bi 33.80198688 14.76466402 51.29018109
Te -8.97962737 17.34546610 53.18643719
Bi -7.00527708 15.99248547 55.39523604
Te 33.69012756 14.64989505 56.96708635
Te -7.13589473 15.58033929 59.99198809
Bi 33.74794657 14.37202076 61.98616234
Te -9.03081872 16.95330312 63.88045454
Bi -7.06027727 15.59606376 66.09205142
Te 33.62871938 14.26328311 67.66412686
Te -7.25800555 15.25525781 70.70642934
Bi 33.63150452 14.03778771 72.69596271
Te -9.15148433 16.61799837 74.59304297
Bi -7.17272276 15.26585569 76.79949319
Te 33.51707410 13.93896052 78.37465997
Te -6.91151136 15.38982996 81.38882742
Bi 33.94575252 14.15668764 83.32639481
Te -8.88945221 16.70649477 85.27466469
Bi -6.84813301 15.39063281 87.42267599
Te 33.87825030 14.08335649 89.07174402
Te -4.65949376 16.62880460 91.78840871
Bi -6.84978166 15.35371076 93.44889602
Te -6.90823952 17.78935692 95.58793942
Bi -4.70797518 16.56614291 97.59872850
Te -6.81957029 15.33548394 99.44593258
Te 33.91906106 14.02915996 102.13849794
Sb -9.01777861 16.52200890 103.79110365
Te -6.87522763 15.26606224 105.69900600
Sb 33.91782254 13.99568177 107.63749998
Te -9.01986535 16.48803694 109.29060075
Te -6.87877995 15.22640918 112.00989834
Sb -6.88385161 17.69556192 113.69842355
Te -4.73829144 16.44140176 115.59823704
Sb -6.88739021 15.18875300 117.49474531
Te -6.89227183 17.65801587 119.18321905
Te -9.04139220 16.40045635 121.90190497
Sb -9.04593613 18.86991714 123.58993768
Te -6.90075008 17.61553543 125.49058943
Sb -9.04928926 16.36320389 127.38810459
Te -9.05381400 18.83267545 129.07613700
Te 33.88292630 13.83151497 131.80327699
Sb -9.05764845 16.32218052 133.46017170
Te -6.91250138 15.06777578 135.36091462
Sb 33.87510982 13.79430812 137.28963545
Te -9.06546245 16.28497495 138.94652969
Te -6.92150247 15.02499406 141.66794185
Sb -6.92598258 17.49449188 143.35591848
Te -4.78084134 16.24008363 145.25667483
Sb -6.92930723 14.98779350 147.15432263
Te -6.93378768 17.45729131 148.84229953
Te -9.08344195 16.19942418 151.56059740
Sb -9.08792256 18.66892175 153.24857452
Te -6.94278106 17.41451390 155.14933011
Sb -9.09124777 16.16222334 157.04697644
Te -9.09572837 18.63172108 158.73495440
Te 33.84094976 13.63052407 161.46203935
Sb -9.09961641 16.12119462 163.11892781
Te -6.95447627 14.86678589 165.01968065
Sb 33.83314506 13.59332354 166.94842538
Te -9.10742042 16.08399461 168.60529972
Te -6.96346303 14.82401066 171.32684782
Sb -6.96794196 17.29350939 173.01477583
Te -4.82280171 16.03909964 174.91563715
Sb -6.97128735 14.78680252 176.81309145
Te -6.97575828 17.25630390 178.50140907
Te -9.12517520 15.99857866 181.21583098
Sb -9.13006815 18.46781995 182.90570687
Te -6.98441792 17.21370546 184.80552791
Sb -9.13289094 15.96143573 186.70440371
Te -9.13802799 18.43075210 188.37962774
Te -8.73975456 15.70833419 191.56658041
Sb -8.74957450 18.17493831 193.24756892
Te -6.59844467 16.92394126 195.14386754
Sb -8.75692636 15.66602428 197.02157489
Te -8.76644979 18.13259859 198.71141805
Te -8.83263703 20.56042900 201.42464637
Bi -10.92942842 19.33783901 203.30723756
Te -10.84070370 21.85930556 205.30267706
Bi -8.75787037 20.46592063 1.84967556
Te -10.96587654 19.18139478 3.47264362
Te -8.54248994 20.55923671 6.49779496
Bi -10.59516437 19.36779272 8.45844769
Te -10.44767524 21.92462164 10.39120569
Bi -8.46777652 20.57550518 12.59627507
Te -10.70920239 19.25986099 14.14108674
Te -8.59790164 20.16324285 17.19584060
Bi -10.65148001 18.97826573 19.15898110
Te -10.49434640 21.53881250 21.08456373
Bi -8.52364724 20.18078334 23.29657095
Te -10.76932364 18.86577652 24.83675224
Te -8.89275143 20.12358339 27.91407635
Bi 31.99601821 18.91161170 29.90797697
Te -10.77952233 21.49667091 31.79844651
Bi -8.81257551 20.13687785 34.01279576
Te 31.87434594 18.80443084 35.58210961
Te -9.17992284 20.08126487 38.62776293
Bi 31.70616084 18.87324302 40.62062274
Te -11.07259620 21.45701485 42.51351282
Bi -9.10144037 20.10262194 44.72433530
Te 31.59113612 18.76335397 46.29484214
Te -9.22901648 19.68948850 49.31848481
Bi 31.65174025 18.48682124 51.31247609
Te -11.12987363 21.06762330 53.20873236
Bi -9.15552369 19.71464232 55.41753111
Te 31.53988072 18.37205175 56.98938125
Te -9.28614142 19.30249646 60.01428295
Bi 31.59769996 18.09417793 62.00845720
Te -11.18106524 20.67546020 63.90274943
Bi -9.21052389 19.31822060 66.11434645
Te 31.47847276 17.98543995 67.68642170
Te -9.40825231 18.97741510 70.72872422
Bi 31.48125771 17.75994480 72.71825744
Te -11.30173088 20.34015534 74.61533769
Bi -9.32296928 18.98801278 76.82178792
Te 31.36682753 17.66111752 78.39695470
Te -9.06175813 19.11198729 81.41112213
Bi 31.79550577 17.87884474 83.34868927
Te -11.03969871 20.42865167 85.29695952
Bi -8.99837966 19.11278971 87.44497099
Te 31.72800366 17.80551339 89.09403878
Te -6.80974030 20.35096171 91.81070337
Bi -9.00002827 19.07586780 93.47119049
Te -9.05848603 21.51151398 95.61023415
Bi -6.85822172 20.28829987 97.62102339
Te -8.96981693 19.05764093 99.46822745
Te 31.76881445 17.75131705 102.16079250
Sb -11.16802512 20.24416600 103.81339831
Te -9.02547436 18.98821930 105.72130080
Sb 31.76757592 17.71783865 107.65979481
Te -11.17011192 20.21019423 109.31289542
Te -9.02902652 18.94856629 112.03219300
Sb -9.03409825 21.41771895 113.72071826
Te -6.88853795 20.16355888 115.62053180
Sb -9.03763692 18.91090998 117.51703997
Te -9.04251869 21.38017290 119.20551372
Te -11.19163885 20.12261332 121.92419973
Sb -11.19618264 22.59207417 123.61223233
Te -9.05099663 21.33769259 125.51288409
Sb -11.19953578 20.08536105 127.41039931
Te -11.20406054 22.55483264 129.09843180
Te 31.73267963 17.55367215 131.82557154
Sb -11.20789500 20.04433767 133.48246625
Te -9.06274789 18.78993290 135.38320911
Sb 31.72486327 17.51646519 137.31193001
Te -11.21570902 20.00713180 138.96882430
Te -9.07174909 18.74715118 141.69023659
Sb -9.07622915 21.21664903 143.37821313
Te -6.93108781 19.96224070 145.27896951
Sb -9.07955382 18.70995064 147.17661732
Te -9.08403421 21.17944830 148.86459425
Te -11.23368849 19.92158130 151.58289212
Sb -11.23816917 22.39107884 153.27086925
Te -9.09302764 21.13667098 155.17162490
Sb -11.24149434 19.88438050 157.06927110
Te -11.24597490 22.35387814 158.75724908
Te 31.69070311 17.35268107 161.48433394
Sb -11.24986298 19.84335159 163.14122242
Te -9.10472267 18.58894312 165.04197538
Sb 31.68289832 17.31548064 166.97071994
Te -11.25766700 19.80615156 168.62759437
Te -9.11370965 18.54616786 171.34914250
Sb -9.11818862 21.01566649 173.03707050
Te -6.97304834 19.76125672 174.93793181
Sb -9.12153392 18.50895962 176.83538605
Te -9.12600488 20.97846095 178.52370378
Te -11.27542167 19.72073579 181.23812579
Sb -11.28031479 22.18997686 182.92800160
Te -9.13466462 20.93586244 184.82782272
Sb -11.28313752 19.68359262 186.72669856
Te -11.28827461 22.15290902 188.40192260
Te -10.89000126 19.43049141 191.58887515
Sb -10.89982101 21.89709549 193.26986367
Te -8.74869121 20.64609834 195.16616222
Sb -10.90717273 19.38818151 197.04386978
Te -10.91669620 21.85475555 198.73371297
Te -10.98288350 24.28258621 201.44694113
Bi -13.07967484 23.05999611 203.32953225
Te -12.99095015 25.58146249 205.32497200
Bi -10.90811681 24.18807747 1.87197050
Te -13.11612307 22.90355156 3.49493850
Te -10.69273615 24.28139381 6.52008991
Bi -12.74541058 23.08994981 8.48074278
Te -12.59792166 25.64677879 10.41350083
Bi -10.61802296 24.29766228 12.61857013
Te -12.85944887 22.98201802 14.16338176
Te -10.74814810 23.88539983 17.21813565
Bi -12.80172651 22.70042297 19.18127631
Te -12.64459266 25.26096973 21.10685882
Bi -10.67389372 23.90294049 23.31886629
Te -12.91957014 22.58793345 24.85904751
Te -11.04299771 23.84574046 27.93637170
Bi 29.84577196 22.63376881 29.93027229
Te -12.92976886 25.21882805 31.82074181
Bi -10.96282193 23.85903488 34.03509083
Te 29.72409952 22.52658792 35.60440480
Te -11.33016932 23.80342205 38.65005800
Bi 29.55591434 22.59540017 40.64291791
Te -13.22284253 25.17917201 42.53580802
Bi -11.25168684 23.82477890 44.74663032
Te 29.44088964 22.48551083 46.31713730
Te -11.37926340 23.41164564 49.34078013
Bi 29.50149377 22.20897814 51.33477158
Te -13.28012008 24.78978018 53.23102767
Bi -11.30577022 23.43679927 55.43982644
Te 29.38963425 22.09420860 57.01167624
Te -11.43638795 23.02465364 60.03657806
Bi 29.44745340 21.81633496 62.03075219
Te -13.33131172 24.39761727 63.92504462
Bi -11.36077034 23.04037763 66.13664153
Te 29.32822620 21.70759661 67.70871665
Te -11.55849888 22.69957212 70.75101922
Bi 29.33101116 21.48210185 72.74055220
Te -13.45197742 24.06231240 74.63763260
Bi -11.47321569 22.71016980 76.84408272
Te 29.21658120 21.38327442 78.41924944
Te -11.21200464 22.83414408 81.43341699
Bi 29.64525929 21.60100172 83.37098441
Te -13.18994534 24.15080877 85.31925439
Bi -11.14862611 22.83494693 87.46726568
Te 29.57775717 21.52767059 89.11633361
Te -8.95998716 24.07311831 91.83299825
Bi -11.15027494 22.79802484 93.49348565
Te -11.20873250 25.23367110 95.63252885
Bi -9.00846839 24.01045694 97.64331814
Te -11.12006343 22.77979795 99.49052210
Te 29.61856799 21.47347397 102.18308722
Sb -13.31827170 23.96632295 103.83569292
Te -11.17572090 22.71037630 105.74359549
Sb 29.61732930 21.43999585 107.68208936
Te -13.32035835 23.93235108 109.33519007
Te -11.17927315 22.67072332 112.05448772
Sb -11.18434481 25.13987608 113.74301297
Te -9.03878455 23.88571588 115.64282646
Sb -11.18788350 22.63306701 117.53933472
Te -11.19276525 25.10232994 119.22780844
Te -13.34188541 23.84477039 121.94649442
Sb -13.34642922 26.31423120 123.63452694
Te -11.20124324 25.05984960 125.53517886
Sb -13.34978236 23.80751806 127.43269412
Te -13.35430700 26.27698962 129.12072661
Te 29.58243311 21.27582914 131.84786615
Sb -13.35814168 23.76649465 133.50476100
Te -11.21299456 22.51208991 135.40550386
Sb 29.57461673 21.23862210 137.33422460
Te -13.36595554 23.72928885 138.99111911
Te -11.22199566 22.46930819 141.71253122
Sb -11.22647562 24.93880598 143.40050780
Te -9.08133444 23.68439783 145.30126423
Sb -11.22980039 22.43210769 147.19891198
Te -11.23428078 24.90160538 148.88688911
Te -13.38393508 23.64373842 151.60518683
Sb -13.38841571 26.11323588 153.29316397
Te -11.24327424 24.85882796 155.19391958
Sb -13.39174088 23.60653749 157.09156578
Te -13.39622145 26.07603510 158.77954380
Te 29.54045653 21.07483827 161.50662850
Sb -13.40010949 23.56550876 163.16351723
Te -11.25496936 22.31110012 165.06426998
Sb 29.53265182 21.03763779 166.99301468
Te -13.40791352 23.52830862 168.64988911
Te -11.26395622 22.26832489 171.37143717
Sb -11.26843509 24.73782362 173.05936528
Te -9.12329478 23.48341370 174.96022643
Sb -11.27178052 22.23111682 176.85768075
Te -11.27625145 24.70061814 178.54599840
Te -13.42566823 23.44289289 181.26042066
Sb -13.43056124 25.91213392 182.95029657
Te -11.28491114 24.65801934 184.85011760
Sb -13.43338399 23.40574959 186.74899345
Te -13.43852120 25.87506591 188.42421732
Te -13.04024788 23.15264859 191.61116997
Sb -13.05006760 25.61925252 193.29215849
Te -10.89893777 24.36825552 195.18845720
Sb -13.05741925 23.11033863 197.06616474
Te -13.06694272 25.57691275 198.75600790
Te -13.13313011 28.00474304 201.46923609
Bi -15.22992149 26.78215304 203.35182721
Te -15.14119682 29.30361942 205.34726702
Bi -13.05836327 27.91023453 1.89426542
Te -15.26636968 26.62570855 3.51723342
Te -12.84298261 28.00355082 6.54238508
Bi -14.89565704 26.81210691 8.50303774
Te -14.74816809 29.36893595 10.43579604
Bi -12.76826936 28.01981935 12.64086539
Te -15.00969542 26.70417508 14.18567698
Te -12.89839449 27.60755690 17.24043084
Bi -14.95197280 26.42258003 19.20357145
Te -14.79483918 28.98312670 21.12915404
Bi -12.82414021 27.62509745 23.34116165
Te -15.06981666 26.31009056 24.88134278
Te -13.19324424 27.56789736 27.95866705
Bi 27.69552545 26.35592586 29.95256755
Te -15.08001520 28.94098523 31.84303700
Bi -13.11306826 27.58119194 34.05738637
Te 27.57385318 26.24874505 35.62670018
Te -13.48041569 27.52557899 38.67235340
Bi 27.40566797 26.31755728 40.66521327
Te -15.37308906 28.90132907 42.55810346
Bi -13.40193320 27.54693598 44.76892571
Te 27.29064332 26.20766786 46.33943259
Te -13.52950976 27.13380272 49.36307547
Bi 27.35124734 25.93113524 51.35706690
Te -15.43036651 28.51193730 53.25332286
Bi -13.45601670 27.15895638 55.46212171
Te 27.23938784 25.81636568 57.03397144
Te -13.58663438 26.74681065 60.05887316
Bi 27.29720697 25.53849199 62.05304734
Te -15.48155821 28.11977425 63.94733988
Bi -13.51101684 26.76253464 66.15893676
Te 27.17797981 25.42975362 67.73101182
Te -13.70874543 26.42172943 70.77331419
Bi 27.18076462 25.20425897 72.76284729
Te -15.60222383 27.78446949 74.65992769
Bi -13.62346218 26.43232680 76.86637761
Te 27.06633468 25.10543144 78.44154435
Te -13.36225114 26.55630132 81.45571196
Bi 27.49501274 25.32315859 83.39327911
Te -15.34019172 27.87296565 85.34154922
Bi -13.29887272 26.55710371 87.48956067
Te 27.42751052 25.24982739 89.13862837
Te -11.11023378 27.79527549 91.85529284
Bi -13.30052140 26.52018192 93.51578033
Te -13.35897893 28.95582810 95.65482358
Bi -11.15871487 27.73261386 97.66561286
Te -13.27031005 26.50195475 99.51281677
Te 27.46832136 25.19563113 102.20538187
Sb -15.46851818 27.68848007 103.85798767
Te -13.32596738 26.43253332 105.76589018
Sb 27.46708279 25.16215295 107.70438414
Te -15.47060490 27.65450821 109.35748484
Te -13.32951983 26.39288028 112.07678232
Sb -13.33459128 28.86203294 113.76530756
Te -11.18903106 27.60787300 115.66512121
Sb -13.33813002 26.35522412 117.56162938
Te -13.34301181 28.82448704 119.25010313
Te -15.49213196 27.56692740 121.96878915
Sb -15.49667581 30.03638824 123.65682177
Te -13.35148970 28.78200665 125.55747359
Sb -15.50002893 27.52967505 127.45498883
Te -15.50455362 29.99914660 129.14302124
Te 27.43218660 24.99798624 131.87016074
Sb -15.50838807 27.48865165 133.52705571
Te -13.36324111 26.23424678 135.42779859
Sb 27.42437018 24.96077924 137.35651935
Te -15.51620213 27.45144580 139.01341378
Te -13.37224217 26.19146525 141.73482595
Sb -13.37672217 28.66096307 143.42280259
Te -11.23158092 27.40655473 145.32355910
Sb -13.38004694 26.15426475 147.22120676
Te -13.38452734 28.62376254 148.90918372
Te -15.53418158 27.36589549 151.62748149
Sb -15.53866223 29.83539306 153.31545864
Te -13.39352076 28.58098497 155.21621429
Sb -15.54198744 27.32869459 157.11386048
Te -15.54646796 29.79819218 158.80183850
Te 27.39021001 24.79699539 161.52892317
Sb -15.55035610 27.28766572 163.18581189
Te -13.40521582 26.03325716 165.08656477
Sb 27.38240526 24.75979485 167.01530940
Te -15.55816004 27.25046564 168.67218398
Te -13.41420289 25.99048198 171.39373183
Sb -13.41868157 28.45998057 173.08165990
Te -11.27354133 27.20557071 174.98252128
Sb -13.42202689 25.95327378 176.87997565
Te -13.42649798 28.42277514 178.56829331
Te -15.57591477 27.16504990 181.28271559
Sb -15.58080777 29.63429090 182.97259139
Te -13.43515764 28.38017649 184.87241253
Sb -15.58363051 27.12790669 186.77128835
Te -15.58876766 29.59722305 188.44651227
Te -15.19049436 26.87480563 191.63346484
Sb -15.20031408 29.34140955 193.31445343
Te -13.04918426 28.09041248 195.21075206
Sb -15.20766581 26.83249560 197.08845964
Te -15.21718947 29.29906967 198.77830275
Te -15.28337669 31.72690003 201.49153110
Bi -17.38016802 30.50431012 203.37412231
Te -17.29144322 33.02577660 205.36956202
Bi -15.20860981 31.63239145 1.91656038
Te -17.41661619 30.34786559 3.53952846
Te -14.99322919 31.72570780 6.56467992
Bi -17.04590360 30.53426389 8.52533282
Te -16.89841465 33.09109296 10.45809105
Bi -14.91851589 31.74197655 12.66316047
Te -17.15994195 30.42633212 14.20797213
Te -15.04864107 31.32971384 17.26272599
Bi -17.10221921 30.14473726 19.22586663
Te -16.94508564 32.70528400 21.15144920
Bi -14.97438664 31.34725466 23.36345668
Te -17.22006301 30.03224773 24.90363770
Te -15.34349059 31.29005425 27.98096208
Bi 25.54527901 30.07808282 29.97486276
Te -17.23026167 32.66314236 31.86533219
Bi -15.26331480 31.30334901 34.07968158
Te 25.42360666 29.97090221 35.64899540
Te -15.63066203 31.24773577 38.69464861
Bi 25.25542162 30.03971428 40.68750856
Te -17.52333538 32.62348615 42.58039848
Bi -15.55217961 31.26909317 44.79122103
Te 25.14039698 29.92982491 46.36172766
Te -15.67975634 30.85595965 49.38537071
Bi 25.20100076 29.65329221 51.37936213
Te -17.58061305 32.23409421 53.27561809
Bi -15.60626322 30.88111348 55.48441713
Te 25.08914116 29.53852264 57.05626675
Te -15.73688090 30.46896778 60.08116827
Bi 25.14696047 29.26064909 62.07534260
Te -17.63180470 31.84193136 63.96963494
Bi -15.66126333 30.48469169 66.18123178
Te 25.02773333 29.15191072 67.75330694
Te -15.85899193 30.14388637 70.79560913
Bi 25.03051824 28.92641602 72.78514222
Te -17.75247032 31.50662645 74.68222265
Bi -15.77370867 30.15448391 76.88867268
Te 24.91608835 28.82758852 78.46383934
Te -15.51249767 30.27845823 81.47800672
Bi 25.34476628 29.04531560 83.41557396
Te -17.49043840 31.59512265 85.36384402
Bi -15.44911906 30.27926085 87.51185515
Te 25.27726419 28.97198465 89.16092324
Te -13.26048024 31.51743245 91.87758770
Bi -15.45076797 30.24233886 93.53807517
Te -15.50922563 32.67798520 95.67711837
Bi -13.30896132 31.45477101 97.68790761
Te -15.42055665 30.22411184 99.53511154
Te 25.31807487 28.91778798 102.22767662
Sb -17.61876475 31.41063697 103.88028222
Te -15.47621400 30.15469043 105.78818483
Sb 25.31683619 28.88430985 107.72667886
Te -17.62085168 31.37666531 109.37977951
Te -15.47976634 30.11503726 112.09907715
Sb -15.48483786 32.58419016 113.78760243
Te -13.33927770 31.33002987 115.68741576
Sb -15.48837655 30.07738120 117.58392413
Te -15.49325817 32.54664415 119.27239790
Te -17.64237854 31.28908446 121.99108379
Sb -17.64692238 33.75854530 123.67911650
Te -15.50173631 32.50416372 125.57976827
Sb -17.65027539 31.25183224 127.47728354
Te -17.65480018 33.72130380 129.16531596
Te 25.28194008 28.72014325 131.89245552
Sb -17.65863458 31.21080879 133.54935044
Te -15.51348760 29.95640386 135.45009334
Sb 25.27412359 28.68293607 137.37881418
Te -17.66644868 31.17360280 139.03570856
Te -15.52248873 29.91362214 141.75712057
Sb -15.52696871 32.38312001 143.44509719
Te -13.38182753 31.12871179 145.34585373
Sb -15.53029345 29.87642179 147.24350148
Te -15.53477395 32.34591950 148.93147844
Te -17.68442816 31.08805253 151.64977623
Sb -17.68890877 33.55755016 153.33775335
Te -15.54376724 32.30314215 155.23850891
Sb -17.69223392 31.05085160 157.13615530
Te -17.69671453 33.52034923 158.82413308
Te 25.23996341 28.51915229 161.55121792
Sb -17.70060262 31.00982273 163.20810660
Te -15.55546236 29.75541423 165.10885941
Sb 25.23215859 28.48195192 167.03760413
Te -17.70840663 30.97262274 168.69447860
Te -15.56444939 29.71263888 171.41602654
Sb -15.56892804 32.18213770 173.10395466
Te -13.42378792 30.92772772 175.00481590
Sb -15.57227345 29.67543078 176.90227052
Te -15.57674449 32.14493217 178.59058806
Te -17.72616131 30.88720690 181.30501047
Sb -17.73105425 33.35644797 182.99488627
Te -15.58540428 32.10233345 184.89470737
Sb -17.73387717 30.85006372 186.79358319
Te -17.73901424 33.31938028 188.46880718
Te -17.34074102 30.59696251 191.65575975
Sb -17.35056071 33.06356641 193.33674837
Te -15.19943080 31.81256931 195.23304704
Sb -17.35791238 30.55465260 197.11075446
Te -17.36743577 33.02122665 198.80059761
Te -17.43362332 35.44905703 201.51382592
Bi -19.53041458 34.22646720 203.39641742
Te -19.44168985 36.74793377 205.39185695
Bi -17.35885626 35.35454855 1.93885563
Te -19.56686292 34.07002256 3.56182337
Te -17.14347587 35.44786469 6.58697482
Bi -19.19615028 34.25642088 8.54762785
Te -19.04866117 36.81324997 10.48038594
Bi -17.06876256 35.46413367 12.68545548
Te -19.31018852 34.14848938 14.23026688
Te -17.19888754 35.05187065 17.28502078
Bi -19.25246572 33.86689419 19.24816186
Te -19.09533213 36.42744097 21.17374403
Bi -17.12463325 35.06941171 23.38575169
Te -19.37030964 33.75440476 24.92593289
Te -17.49373705 35.01221116 28.00325708
Bi 23.39503259 33.80023997 29.99715795
Te -19.38050824 36.38529926 31.88762719
Bi -17.41356123 35.02550643 34.10197659
Te 23.27336013 33.69305939 35.67129046
Te -17.78090843 34.96989265 38.71694360
Bi 23.10517517 33.76187138 40.70980372
Te -19.67358186 36.34564319 42.60269371
Bi -17.70242591 34.99125036 44.81351605
Te 22.99015046 33.65198211 46.38402284
Te -17.83000269 34.57811661 49.40766583
Bi 23.05075425 33.37544911 51.40165729
Te -19.73086003 35.95625137 53.29791317
Bi -17.75650969 34.60327067 55.50671190
Te 22.93889500 33.26067979 57.07856185
Te -17.88712729 34.19112488 60.10346333
Bi 22.99671405 32.98280610 62.09763755
Te -19.78205117 35.56408850 63.99192984
Bi -17.81150965 34.20684887 66.20352663
Te 22.87748697 32.87406791 67.77560173
Te -18.00923828 33.86604349 70.81790411
Bi 22.88027180 32.64857323 72.80743739
Te -19.90271684 35.22878366 74.70451766
Bi -17.92395507 33.87664097 76.91096775
Te 22.76584194 32.54974561 78.48613436
Te -17.66274421 34.00061538 81.50030163
Bi 23.19451971 32.76747278 83.43786871
Te -19.64068496 35.31727978 85.38613880
Bi -17.59936569 34.00141780 87.53415003
Te 23.12701760 32.69414168 89.18321800
Te -15.41072680 35.23958942 91.89988226
Bi -17.60101453 33.96449597 93.56036992
Te -17.65947208 36.40014228 95.69941311
Bi -15.45920787 35.17692800 97.71020239
Te -17.57080315 33.94626893 99.55740613
Te 23.16782817 32.63994507 102.24997129
Sb -19.76901133 35.13279430 103.90257690
Te -17.62646049 33.87684739 105.81047939
Sb 23.16658965 32.60646703 107.74897352
Te -19.77109821 35.09882226 109.40207418
Te -17.63001296 33.83719440 112.12137180
Sb -17.63508459 36.30634731 113.80989701
Te -15.48952435 35.05218713 115.70971060
Sb -17.63862314 33.79953833 117.60621881
Te -17.64350499 36.26880120 119.29469245
Te -19.79262511 35.01124152 122.01337854
Sb -19.79716898 37.48070236 123.70141114
Te -17.65198303 36.22632078 125.60206290
Sb -19.80052199 34.97398933 127.49957831
Te -19.80504674 37.44346100 129.18761064
Te 23.13169347 32.44230040 131.91475014
Sb -19.80888114 34.93296593 133.57164507
Te -17.66373421 33.67856105 135.47238798
Sb 23.12387705 32.40509324 137.40110879
Te -19.81669533 34.89575988 139.05800317
Te -17.67273530 33.63577902 141.77941527
Sb -17.67721526 36.10527713 143.46739172
Te -15.53207398 34.85086900 145.36814838
Sb -17.68053999 33.59857889 147.26579615
Te -17.68502047 36.06807667 148.95377296
Te -19.83467467 34.81020952 151.67207088
Sb -19.83915529 37.27970729 153.36004793
Te -17.69401396 36.02529938 155.26080356
Sb -19.84248046 34.77300871 157.15844991
Te -19.84696110 37.24250640 158.84642770
Te 23.08971694 32.24130944 161.57351264
Sb -19.85084917 34.73197992 163.23040140
Te -17.70570889 33.47757124 165.13115418
Sb 23.08191209 32.20410889 167.05989883
Te -19.85865320 34.69477972 168.71677329
Te -17.71469594 33.43479585 171.43832137
Sb -17.71917469 35.90429469 173.12624943
Te -15.57403453 34.64988478 175.02711074
Sb -17.72252005 33.39758791 176.92456533
Te -17.72699107 35.86708929 178.61288288
Te -19.87640790 34.60936390 181.32730531
Sb -19.88130083 37.07860509 183.01718110
Te -17.73565077 35.82449044 184.91700221
Sb -19.88412376 34.57222083 186.81587800
Te -19.88926107 37.04153742 188.49110191
Te -19.49098757 34.31911946 191.67805462
Sb -19.50080714 36.78572340 193.35904318
Te -17.34967734 35.53472647 195.25534192
Sb -19.50815882 34.27680958 197.13304942
Te -19.51768250 36.74338383 198.82289250
Te -19.58387000 39.17121396 201.53612065
Bi -21.68066119 37.94862416 203.41871228
Te -21.59193645 40.47009101 205.41415146
Bi -19.50910291 39.07670582 1.96115036
Te -21.71710944 37.79217993 3.58411799
Te -19.29372250 39.17002161 6.60926958
Bi -21.34639682 37.97857799 8.56992268
Te -21.19890811 40.53540723 10.50268036
Bi -19.21900919 39.18629103 12.70774997
Te -21.46043521 37.87064663 14.25256169
Te -19.34913442 38.77402728 17.30731561
Bi -21.40271241 37.58905110 19.27045680
Te -21.24557878 40.14959809 21.19603869
Bi -19.27488002 38.79156889 23.40804655
Te -21.52055637 37.47656202 24.94822761
Te -19.64398385 38.73436823 28.02555187
Bi 21.24478601 37.52239687 30.01945292
Te -21.53075493 40.10745665 31.90992194
Bi -19.56380809 38.74766353 34.12427137
Te 21.12311351 37.41521673 35.69358531
Te -19.93115501 38.69204939 38.73923828
Bi 20.95492871 37.48402828 40.73209866
Te -21.82382839 40.06780028 42.62498836
Bi -19.85267263 38.71340752 44.83581098
Te 20.83990395 37.37413920 46.40631770
Te -19.98024916 38.30027359 49.42996073
Bi 20.90050771 37.09760615 51.42395194
Te -21.88110668 39.67840834 53.32020794
Bi -19.90675627 38.32542785 55.52900694
Te 20.78864833 36.98283707 57.10085687
Te -20.03737380 37.91328169 60.12575831
Bi 20.84646762 36.70496319 62.11993260
Te -21.93229762 39.28624574 64.01422470
Bi -19.96175615 37.92900611 66.22582153
Te 20.72724046 36.59622520 67.79789680
Te -20.15948479 37.58820050 70.84019906
Bi 20.73002545 36.37073022 72.82973242
Te -22.05296334 38.95094104 74.72681234
Bi -20.07420132 37.59879805 76.93326258
Te 20.61559549 36.27190296 78.50842922
Te -19.81299063 37.72277234 81.52259643
Bi 21.04427312 36.48962991 83.46016351
Te -21.79093150 39.03943695 85.40843350
Bi -19.74961207 37.72357507 87.55644463
Te 20.97677100 36.41629875 89.20551282
Te -17.56097340 38.96174664 91.92217705
Bi -19.75126105 37.68665305 93.58266466
Te -19.80971864 40.12229945 95.72170761
Bi -17.60945452 38.89908519 97.73249698
Te -19.72104988 37.66842602 99.57970065
Te 21.01758163 36.36210222 102.27226587
Sb -21.91925789 38.85495134 103.92487146
Te -19.77670707 37.59900455 105.83277411
Sb 21.01634309 36.32862389 107.77126803
Te -21.92134467 38.82097957 109.42436865
Te -19.78025952 37.55935155 112.14366636
Sb -19.78533117 40.02850442 113.83219146
Te -17.63977099 38.77434423 115.73200497
Sb -19.78886984 37.52169543 117.62851322
Te -19.79375169 39.99095839 119.31698691
Te -21.94287167 38.73339868 122.03567329
Sb -21.94741568 41.20285953 123.72370575
Te -19.80222962 39.94847800 125.62435751
Sb -21.95076881 38.69614644 127.52187270
Te -21.95529354 41.16561820 129.20990506
Te 20.98144689 36.16445739 131.93704494
Sb -21.95912769 38.65512293 133.59393974
Te -19.81398075 37.40071805 135.49468276
Sb 20.97363049 36.12725023 137.42340328
Te -21.96694195 38.61791708 139.08029778
Te -19.82298190 37.35793617 141.80170983
Sb -19.82746199 39.82743425 143.48968636
Te -17.68232059 38.57302614 145.39044285
Sb -19.83078659 37.32073607 147.28809051
Te -19.83526727 39.79023387 148.97606745
Te -21.98492122 38.53236670 151.69436548
Sb -21.98940205 41.00186452 153.38234242
Te -19.84426055 39.74745650 155.28309807
Sb -21.99272708 38.49516583 157.18074451
Te -21.99720772 40.96466368 158.86872216
Te 20.93947034 35.96346650 161.59580729
Sb -22.00109569 38.45413703 163.25269601
Te -19.85595547 37.19972825 165.15344888
Sb 20.93166544 35.92626607 167.08219344
Te -22.00889982 38.41693693 168.73906791
Te -19.86494249 37.15695282 171.46061595
Sb -19.86942128 39.62645173 173.14854403
Te -17.72428118 38.37204186 175.04940538
Sb -19.87276656 37.11974496 176.94686009
Te -19.87723753 39.58924631 178.63517753
Te -22.02665457 38.33152108 181.34959997
Sb -22.03154741 40.80076232 183.03947559
Te -19.88589745 39.54664778 184.93929689
Sb -22.03437056 38.29437814 186.83817253
Te -22.03950780 40.76369464 188.51339651
Te -21.64123391 38.04127643 191.70034928
Sb -21.65105370 40.50788032 193.38133797
Te -19.49992389 39.25688347 195.27763655
Sb -21.65840561 37.99896667 197.15534416
Te -21.66792923 40.46554095 198.84518721
Te -21.73411660 42.89337115 201.55841503
Bi -23.83090775 41.67078130 203.44100674
Te -23.74218314 44.19224816 205.43644579
Bi -21.65934970 42.79886300 1.98344489
Te -23.86735625 41.51433715 3.60641247
Te -21.44396925 42.89217879 6.63156394
Bi -23.49664360 41.70073523 8.59221703
Te -23.34915502 44.25756446 10.52497462
Bi -21.36925621 42.90844830 12.73004449
Te -23.61068204 41.59280400 14.27485619
Te -21.49938108 42.49618429 17.32961004
Bi -23.55295909 41.31120810 19.29275116
Te -23.39582582 43.87175530 21.21833297
Bi -21.42512680 42.51372625 23.43034080
Te -23.67080301 41.19871943 24.97052220
Te -21.79423066 42.45652496 28.04784646
Bi 19.09453924 41.24455400 30.04174754
Te -23.68100173 43.82961378 31.93221602
Bi -21.71405488 42.46982103 34.14656585
Te 18.97286681 41.13737413 35.71587980
Te -22.08140145 42.41420623 38.76153302
Bi 18.80468220 41.20618527 40.75439330
Te -23.97407521 43.78995760 42.64728269
Bi -22.00291959 42.43556490 44.85810544
Te 18.68965716 41.09629669 46.42861231
Te -22.13049561 42.02243041 49.45225531
Bi 18.75026132 40.81976330 51.44624664
Te -24.03135338 43.40056562 53.34250232
Bi -22.05700296 42.04758522 55.55130115
Te 18.63840173 40.70499448 57.12315136
Te -22.18762030 41.63543873 60.14805267
Bi 18.69622109 40.42712014 62.14222715
Te -24.08254450 43.00840280 64.03651920
Bi -22.11200288 41.65116353 66.24811624
Te 18.57699374 40.31838254 67.82019134
Te -22.30973129 41.31035738 70.86249360
Bi 18.57977890 40.09288733 72.85202698
Te -24.20321013 42.67309808 74.74910693
Bi -22.22444796 41.32095555 76.95555728
Te 18.46534896 39.99406014 78.53072397
Te -21.96323715 41.44492950 81.54489113
Bi 18.89402650 40.21178719 83.48245813
Te -23.94117805 42.76159421 85.43072805
Bi -21.89985900 41.44573225 87.57873937
Te 18.82652447 40.13845582 89.22780729
Te -19.71122001 42.68390385 91.94447145
Bi -21.90150773 41.40881032 93.60495912
Te -21.95996548 43.84445693 95.74400205
Bi -19.75970126 42.62124264 97.75479130
Te -21.87129652 41.39058332 99.60199516
Te 18.86733495 40.08425942 102.29456048
Sb -24.06950460 42.57710861 103.94716591
Te -21.92695394 41.32116181 105.85506863
Sb 18.86609652 40.05078131 107.79356264
Te -24.07159157 42.54313682 109.44666307
Te -21.93050625 41.28150868 112.16596080
Sb -21.93557785 43.75066169 113.85448587
Te -19.79001762 42.49650138 115.75429948
Sb -21.93911654 41.24385262 117.65080771
Te -21.94399855 43.71311574 119.33928112
Te -24.09311837 42.45555587 122.05796780
Sb -24.09766230 44.92501676 123.74600026
Te -21.95247623 43.67063519 125.64665202
Sb -24.10101557 42.41830370 127.54416710
Te -24.10554038 44.88777550 129.23219938
Te 18.83120021 39.88661464 131.95933960
Sb -24.10937464 42.37728015 133.61623443
Te -21.96422763 41.12287535 135.51697736
Sb 18.82338378 39.84940746 137.44569808
Te -24.11718873 42.34007440 139.10259239
Te -21.97322858 41.08009331 141.82400432
Sb -21.97770876 43.54959152 143.51198074
Te -19.83256758 42.29518332 145.41273730
Sb -21.98103335 41.04289316 147.31038518
Te -21.98551399 43.51239112 148.99836174
Te -24.13516803 42.25452388 151.71666001
Sb -24.13964881 44.72402158 153.40463699
Te -21.99450722 43.46961374 155.30539242
Sb -24.14297367 42.21732307 157.20303895
Te -24.14745447 44.68682094 158.89101655
Te 18.78922379 39.68562357 161.61810200
Sb -24.15134223 42.17629411 163.27499028
Te -22.00620217 40.92188550 165.17574345
Sb 18.78141895 39.64842313 167.10448812
Te -24.15914646 42.13909421 168.76136229
Te -22.01518907 40.87910992 171.48291081
Sb -22.01966798 43.34860888 173.17083875
Te -19.87452773 42.09419898 175.07169995
Sb -22.02301322 40.84190214 176.96915461
Te -22.02748444 43.31140365 178.65747186
Te -24.17690137 42.05367816 181.37189442
Sb -24.18179421 44.52291952 183.06177018
Te -22.03614422 43.26880506 184.96159122
Sb -24.18461731 42.01653550 186.86046708
Te -24.18975460 44.48585212 188.53569086
Te -23.79148059 41.76343349 191.72264396
Sb -23.80130043 44.23003741 193.40363249
Te -21.65017055 42.97904046 195.29993118
Sb -23.80865225 41.72112370 197.17763873
Te -23.81817599 44.18769819 198.86748146
Te -23.88436353 46.61552825 201.58070939
Bi -25.98115458 45.39293853 203.46330117
Te -25.89243013 47.91440559 205.45873993
Bi -23.80959670 46.52102045 2.00573901
Te -26.01760316 45.23649456 3.62870676
Te -23.59421619 46.61433578 6.65385784
Bi -25.64689050 45.42289228 8.61451109
Te -25.49940210 47.97972166 10.54726855
Bi -23.51950328 46.63060587 12.75233835
Te -25.76092893 45.31496189 14.29715032
Te -23.64962756 46.21834122 17.35190409
Bi -25.70320585 45.03336513 19.31504503
Te -25.54607260 47.59391244 21.24062668
Bi -23.57537362 46.23588380 23.45263472
Te -25.82104974 44.92087685 24.99281627
Te -23.94447717 46.17868183 28.07014039
Bi 16.94429251 44.96671103 30.06404151
Te -25.83124874 47.55177095 31.95450990
Bi -23.86430174 46.19197856 34.16885982
Te 16.82261976 44.85953157 35.73817386
Te -24.23164830 46.13636326 38.78382695
Bi 16.65443537 44.92834239 40.77668750
Te -26.12432221 47.51211500 42.66957649
Bi -24.15316645 46.15772229 44.88039945
Te 16.53941028 44.81845427 46.45090654
Te -24.28074237 45.74458729 49.47454948
Bi 16.60001452 44.54192026 51.46854097
Te -26.18160021 47.12272308 53.36479632
Bi -24.20724982 45.76974276 55.57359525
Te 16.48815492 44.42715216 57.14544581
Te -24.33786696 45.35759559 60.17034709
Bi 16.54597441 44.14927729 62.16452145
Te -26.23279160 46.73056005 64.05881324
Bi -24.26224985 45.37332113 66.27041039
Te 16.42674704 44.04054011 67.84248592
Te -24.45997774 45.03251452 70.88478807
Bi 16.42953238 43.81504455 72.87432135
Te -26.35345697 46.39525556 74.77140112
Bi -24.37469475 45.04311291 76.97785120
Te 16.31510212 43.71621781 78.55301828
Te -24.11348414 45.16708673 81.56718529
Bi 16.74377978 43.93394420 83.50475239
Te -26.09142514 46.48375133 85.45302226
Bi -24.05010589 45.16788963 87.60103363
Te 16.67627766 43.86061332 89.25010172
Te -21.86146689 46.40606138 91.96676599
Bi -24.05175436 45.13096788 93.62725363
Te -24.11021232 47.56661414 95.76629650
Bi -21.90994817 46.34339991 97.77708583
Te -24.02154342 45.11274065 99.62428959
Te 16.71708819 43.80641660 102.31685494
Sb -26.21975144 46.29926583 103.96946021
Te -24.07720058 45.04331915 105.87736285
Sb 16.71584973 43.77293855 107.81585696
Te -26.22183843 46.26529419 109.46895737
Te -24.08075289 45.00366584 112.18825510
Sb -24.08582475 47.47281907 113.87678023
Te -21.94026444 46.21865870 115.77659384
Sb -24.08936338 44.96600998 117.67310212
Te -24.09424535 47.43527314 119.36157541
Te -26.24336507 46.17771319 122.08026206
Sb -26.24790921 48.64717407 123.76829460
Te -24.10272310 47.39279262 125.66894627
Sb -26.25126222 46.14046096 127.56646145
Te -26.25578712 48.60993302 129.25449339
Te 16.68095345 43.60877189 131.98163431
Sb -26.25962142 46.09943743 133.63852888
Te -24.11447440 44.84503269 135.53927182
Sb 16.67313705 43.57156472 137.46799249
Te -26.26743567 46.06223170 139.12488664
Te -24.12347535 44.80225066 141.84629871
Sb -24.12795565 47.27174899 143.53427490
Te -21.98281451 46.01734072 145.43503167
Sb -24.13128015 44.76505026 147.33267948
Te -24.13576088 47.23454841 149.02065606
Te -26.28541476 45.97668108 151.73895433
Sb -26.28989581 48.44617911 153.42693091
Te -24.14475411 47.19177100 155.32768672
Sb -26.29322056 45.93948033 157.22533329
Te -26.29770136 48.40897820 158.91331081
Te 16.63897697 43.40778081 161.64039659
Sb -26.30158913 45.89845140 163.29728483
Te -24.15644897 44.64404262 165.19803784
Sb 16.63117216 43.37058046 167.12678264
Te -26.30939334 45.86125150 168.78365676
Te -24.16543580 44.60126713 171.50520526
Sb -24.16991477 47.07076616 173.19313311
Te -22.02477455 45.81635627 175.09399444
Sb -24.17326012 44.56405941 176.99144896
Te -24.17773127 47.03356105 178.67976620
Te -26.32714814 45.77583543 181.39418889
Sb -26.33204116 48.24507685 183.08406428
Te -24.18639113 46.99096246 184.98388538
Sb -26.33486406 45.73869286 186.88276135
Te -26.34000139 48.20800959 188.55798501
Te -25.94172729 45.48559034 191.74493840
Sb -25.95154735 47.95219446 193.42592686
Te -23.80041749 46.70119771 195.32222549
Sb -25.95889894 45.44328096 197.19993309
Te -25.96842293 47.90985552 198.88977558
Te -26.03461045 50.33768567 201.60300337
Bi -28.13140155 49.11509585 203.48559507
Te -28.04267707 51.63656281 205.48103391
Bi -25.95984369 50.24317787 2.02803305
Te -28.16785016 48.95865192 3.65100070
Te -25.74446322 50.33649312 6.67615196
Bi -27.79713764 49.14504958 8.63680497
Te -27.64964934 51.70187894 10.56956219
Bi -25.66975043 50.35276321 12.77463212
Te -27.91117603 49.03711921 14.31944413
Te -25.79987459 49.94049841 17.37419768
Bi -27.85345280 48.75552248 19.33733873
Te -27.69631995 51.31606981 21.26292029
Bi -25.72562068 49.95804116 23.47492809
Te -27.97129677 48.64303464 25.01511019
Te -26.09472412 49.90083902 28.09243407
Bi 14.79404558 48.68886833 30.08633523
Te -27.98149592 51.27392836 31.97680327
Bi -26.01454879 49.91413606 34.19115328
Te 14.67237273 48.58168921 35.76046771
Te -26.38189535 49.85852047 38.80612078
Bi 14.50418831 48.65049954 40.79898110
Te -28.27456938 51.23427210 42.69187002
Bi -26.30341328 49.87987982 44.90269305
Te 14.38916323 48.54061180 46.47320044
Te -26.43098928 49.46674436 49.49684305
Bi 14.44976761 48.26407757 51.49083465
Te -28.33184738 50.84488038 53.38708987
Bi -26.35749701 49.49190030 55.59588905
Te 14.33790806 48.14930978 57.16773962
Te -26.48811387 49.07975297 60.19264077
Bi 14.39572751 47.87143450 62.18681529
Te -28.38303873 50.45271740 64.08110697
Bi -26.41249673 49.09547858 66.29270404
Te 14.27650038 47.76269775 67.86477988
Te -26.61022455 48.75467173 70.90708207
Bi 14.27928564 47.53720173 72.89661529
Te -28.50370386 50.11741276 74.79369507
Bi -26.52494163 48.76527037 77.00014546
Te 14.16485519 47.43837525 78.57531222
Te -26.26373096 48.88924410 81.58947936
Bi 14.59353295 47.65610158 83.52704657
Te -28.24167194 50.20590882 85.47531625
Bi -26.20035269 48.89004723 87.62332764
Te 14.52603063 47.58277075 89.27239589
Te -24.01171373 50.12821871 91.98906002
Bi -26.20200140 48.85312519 93.64954750
Te -26.26045932 51.28877155 95.78859050
Bi -24.06019515 50.06555745 97.79937999
Te -26.17179023 48.83489817 99.64658381
Te 14.56684139 47.52857389 102.33914927
Sb -28.36999830 50.02142334 103.99175447
Te -26.22744747 48.76547653 105.89965710
Sb 14.56560287 47.49509575 107.83815105
Te -28.37208532 49.98745170 109.49125147
Te -26.23099982 48.72582318 112.21054931
Sb -26.23607169 51.19497651 113.89907425
Te -24.09051133 49.94081625 115.79888801
Sb -26.23961019 48.68816732 117.69539636
Te -26.24449228 51.15743055 119.38386944
Te -28.39361195 49.89987042 122.10255629
Sb 1.70529801 0.25913061 123.47846573
Te -26.25296998 51.11495003 125.69124029
Sb -28.40150903 49.86261820 127.58875553
Te 1.69741979 0.22188960 128.96466478
Te 14.53070663 47.33092909 132.00392865
Sb -28.40986824 49.82159483 133.66082310
Te -26.26472121 48.56718998 135.56156616
Sb 14.52289018 47.29372214 137.49028672
Te -28.41768257 49.78438921 139.14718086
Te -26.27372227 48.52440782 141.86859301
Sb -26.27820252 50.99390627 143.55656904
Te -24.13306130 49.73949797 145.45732584
Sb -26.28152704 48.48720772 147.35497371
Te -26.28600782 50.95670601 149.04295014
Te -28.43566165 49.69883857 151.76124853
Sb 1.66331131 0.05813564 153.13710238
Te -26.29500099 50.91392838 155.34998082
Sb -28.44346727 49.66163765 157.24762759
Te -28.44794855 52.13113587 158.93560499
Te 14.48873005 47.12993811 161.66269084
Sb -28.45183611 49.62060869 163.31957924
Te -26.30669582 48.36620005 165.22033219
Sb 14.48092519 47.09273765 167.14907706
Te -28.45964020 49.58340898 168.80595091
Te -26.31568261 48.32342435 171.52749953
Sb -26.32016169 50.79292357 173.21542739
Te -24.17502140 49.53851369 175.11628858
Sb -26.32350694 48.28621679 177.01374304
Te -26.32797827 50.75571843 178.70206025
Te -28.47739502 49.49799276 181.41648298
Sb -28.48228814 51.96723422 183.10635826
Te -26.33663812 50.71311984 185.00617943
Sb -28.48511094 49.46085032 186.90505562
Te -28.49024846 51.93016734 188.58027896
Te -28.09197415 49.20774755 191.76723265
Sb -28.10179436 51.67435188 193.44822055
Te -25.95066456 50.42335514 195.34451942
Sb -28.10914585 49.16543828 197.22222720
Te -28.11866987 51.63201308 198.91206956
Te 6.34203820 2.02208413 201.35488615
Bi 4.14220531 0.74184843 203.00081585
Te 4.04020861 3.15225210 205.16182489
Bi 6.32249719 1.87540381 1.51508159
Te 4.23482161 0.65773567 3.40445092
Te 6.74353281 2.09066150 6.45381068
Bi 4.50112819 0.78035920 7.99994917
Te 4.33421700 3.15214187 10.22588882
Bi 6.63389993 1.98571093 12.13563876
Te 4.57965788 0.79853434 14.09500930
Te 6.69797156 1.70773389 17.14850302
Bi 4.45521375 0.38948087 18.68890635
Te 4.27681344 2.75773075 20.92138341
Bi 6.58382019 1.59789198 22.82350425
Te 4.53337291 0.41111794 24.78471309
Te 6.41572755 1.66690973 27.86142538
Bi 4.16659215 0.35566148 29.39970581
Te 3.98329697 2.71802479 31.63631668
Bi 6.29409900 1.55975653 33.53554244
Te 4.24680258 0.36898035 35.49840327
Te 6.12366957 1.62681420 38.57590001
Bi 3.87755211 0.31188469 40.11543705
Te 3.69738123 2.67568268 42.35010881
Bi 6.00535806 1.51446901 44.25268735
Te 3.95251654 0.32931807 46.21663822
Te 6.06369852 1.23620403 49.27222077
Bi -26.28043507 52.02492024 51.12503025
Te 3.64714253 2.28393943 53.04401609
Bi 5.95184446 1.12142321 54.94910400
Te -26.20690982 52.05008621 57.22402038
Te 6.01139862 0.84503451 59.96673352
Bi -26.33619530 51.63916230 61.81921433
Te 3.58874410 1.89736910 63.73977711
Bi 5.89566700 0.73718348 65.64236910
Te -26.25625767 51.65637029 67.91501319
Te 5.89509151 0.51019501 70.67674562
Bi -26.45702268 51.31419859 72.53225236
Te 3.47064527 1.57172092 74.45151128
Bi 5.77289091 0.40770876 76.35860597
Te -26.37979549 51.32159504 78.63304273
Te 6.15624245 0.59896963 81.35150373
Bi -26.16333460 51.41938713 83.26868543
Te 3.82248572 1.71036395 85.14542896
Bi 6.06977190 0.51459640 87.11033699
Te -26.12090101 51.40794538 89.32564595
Te 8.14571088 1.68670134 91.64677398
Bi 6.03966241 0.45918175 93.50663671
Te 6.08836170 2.95738112 95.53611728
Bi 8.17663949 1.66889611 97.64278858
Te 5.99253717 0.39725300 99.32591338
Te -26.21438902 51.27633902 102.34902882
Sb 3.88091518 1.63350841 103.72608829
Te 6.02869450 0.38066526 105.61996069
Sb -26.22865136 51.23550037 107.81941657
Te 3.86745723 1.59312119 109.19891881
Te 6.01430459 0.33479820 111.92233898
Sb 6.01041283 2.80463994 113.60977794
Te 8.15513734 1.54998557 115.51146561
Sb 6.00730209 0.29805309 117.41025630
Te 6.00322220 2.76778576 119.09773454
Te 3.85303512 1.50961359 121.81565608
Sb 3.84861701 3.97914832 123.50357751
Te 5.99371439 2.72471405 125.40443673
Sb 3.84532001 1.47246429 127.30221454
Te 3.84088301 3.94198789 128.99013679
Te -26.26203776 51.07213006 131.99822174
Sb 3.83694272 1.43143151 133.37406889
Te 5.98207895 0.17702041 135.27483663
Sb -26.26983360 51.03493534 137.48462116
Te 3.82914470 1.39423540 138.86046863
Te 5.97309554 0.13424866 141.58187547
Sb 5.96861354 2.60374589 143.26985311
Te 8.11375600 1.34933819 145.17060690
Sb 5.96528832 0.09704712 147.06825160
Te 5.96080660 2.56654451 148.75622934
Te 3.81115451 1.30867803 151.47452918
Sb 3.80667319 3.77817583 153.16250630
Te 5.95181510 2.52376791 155.06326135
Sb 3.80334785 1.27147699 156.96090658
Te 3.79886666 3.74097453 158.64888489
Te -26.30399239 50.87115177 161.65700583
Sb 3.79497925 1.23044797 163.03286338
Te -24.16333122 52.08624191 165.24573634
Sb -26.31179967 50.83395023 167.14338386
Te 3.78717131 1.19324612 168.51922880
Te -24.17233043 52.04346052 171.55288303
Sb 5.92664044 2.40275717 172.92868790
Te 8.07178336 1.14834955 174.82954052
Sb -24.18011763 52.00626849 177.03917313
Te 5.91884369 2.36555638 178.41541200
Te 3.76895264 1.10759550 181.12993057
Sb 3.76488459 3.57732827 182.81897376
Te 5.90951141 2.32264108 184.71978448
Sb 3.76104268 1.07020738 186.61913400
Te 3.75723501 3.54024706 188.29307666
Te 4.14213391 0.81038482 191.47227765
Sb 4.14304317 3.28315941 193.14055341
Te 6.28220919 2.02523720 195.04732424
Sb 4.14375971 0.77858236 196.96559500
Te 4.14457139 3.25116409 198.64850648
Te 4.19179101 5.74424186 201.37718009
Bi 1.99195837 4.46400583 203.02310975
Te 1.88996155 6.87440946 205.18411882
Bi 4.17225000 5.59756119 1.53737545
Te 2.08457484 4.37989280 3.42674502
Te 4.59328563 5.81281901 6.47610443
Bi 2.35088103 4.50251657 8.02224253
Te 2.18397031 6.87429894 10.24818275
Bi 4.48365305 5.70786805 12.15793274
Te 2.42941080 4.52069146 14.11730300
Te 4.54772467 5.42989166 17.17079649
Bi 2.30496651 4.11163839 18.71119950
Te 2.12656642 6.47988777 20.94367713
Bi 4.43357321 5.32004937 22.84579822
Te 2.38312582 4.13327527 24.80700683
Te 4.26548016 5.38906755 27.88371887
Bi 2.01634473 4.07781888 29.42199915
Te 1.83304998 6.44018217 31.65861040
Bi 4.14385201 5.28191393 33.55783605
Te 2.09655572 4.09113741 35.52069680
Te 3.97342235 5.34897226 38.59819345
Bi 1.72730485 4.03404219 40.13773037
Te 1.54713421 6.39783987 42.37240255
Bi 3.85511089 5.23662646 44.27498109
Te 1.80226963 4.05147520 46.23893188
Te 3.91345136 4.95836165 49.29451419
Bi 1.67277174 3.63687706 50.83520089
Te 1.49689567 6.00609697 53.06630986
Bi 3.80159760 4.84358080 54.97139762
Te 1.74629682 3.66204268 56.93419093
Te 3.86115139 4.56719248 59.98902703
Bi 1.61701156 3.25111881 61.52938462
Te 1.43849694 5.61952630 63.76207075
Bi 3.74542001 4.45934089 65.66466289
Te 1.69694941 3.26832672 67.62518399
Te 3.74484437 4.23235268 70.69903925
Bi 1.49618414 2.92615527 72.24242320
Te 1.32039827 5.29387834 74.47380502
Bi 3.62264392 4.12986629 76.38089972
Te 1.57341160 2.93355154 78.34321379
Te 4.00599555 4.32112699 81.37379781
Bi 1.78987234 3.03134378 82.97885648
Te 1.67223876 5.43252155 85.16772307
Bi 3.91952493 4.23675368 87.13263083
Te 1.83230612 3.01990200 89.03581709
Te 5.99546380 5.40885868 91.66906819
Bi 3.88941556 4.18133920 93.52893113
Te 3.93811486 6.67953856 95.55841162
Bi 6.02639257 5.39105342 97.66508280
Te 3.84229021 4.11941040 99.34820739
Te 1.73881795 2.88829574 102.05920017
Sb 1.73066819 5.35566583 103.74838251
Te 3.87844746 4.10282274 105.64225490
Sb 1.72455566 2.84745693 107.52958789
Te 1.71721037 5.31527865 109.22121301
Te 3.86405755 4.05695576 111.94463302
Sb 3.86016604 6.52679736 113.63207227
Te 6.00489047 5.27214293 115.53375994
Sb 3.85705516 4.02021044 117.43255041
Te 3.85297526 6.48994306 119.12002885
Te 1.70278815 5.23177100 121.83795023
Sb 1.69837030 7.70130575 123.52587168
Te 3.84346761 6.44687137 125.42673106
Sb 1.69507297 5.19462168 127.32450873
Te 1.69063592 7.66414517 129.01243122
Te 1.69116917 2.68408681 131.70839297
Sb 1.68669580 5.15358910 133.39636309
Te 3.83183204 3.89917779 135.29713071
Sb 1.68337348 2.64689191 137.19479241
Te 1.67889781 5.11639279 138.88276289
Te 3.82284868 3.85640596 141.60416965
Sb 3.81836676 6.32590330 143.29214722
Te 5.96350909 5.07149560 145.19290117
Sb 3.81504121 3.81920454 147.09054570
Te 3.81055979 6.28870188 148.77852362
Te 1.66090743 5.03083555 151.49682351
Sb 1.65642625 7.50033315 153.18480075
Te 3.80156821 6.24592531 155.08555576
Sb 1.65310101 4.99363438 156.98320086
Te 1.64861975 7.46313174 158.67117915
Te 1.64921471 2.48310846 161.36717706
Sb 1.64473233 4.95260543 163.05515755
Te 3.78987583 3.69819840 164.95590756
Sb 1.64140733 2.44590678 166.85355509
Te 1.63692410 4.91540339 168.54152284
Te 3.78087644 3.65541726 171.26305420
Sb 3.77639341 6.12491441 172.95098191
Te 5.92153643 4.87050701 174.85183474
Sb 3.77308946 3.61822521 176.74934426
Te 3.76859673 6.08771370 178.43770620
Te 1.61870575 4.82975306 181.15222445
Sb 1.61463780 7.29948569 182.84126778
Te 3.75926447 6.04479849 184.74207866
Sb 1.61079563 4.79236493 186.64142782
Te 1.60698840 7.26240437 188.31537079
Te 1.99188712 4.53254254 191.49457162
Sb 1.99279618 7.00531705 193.16284753
Te 4.13196227 5.74739465 195.06961813
Sb 1.99351263 4.50073987 196.98788847
Te 1.99432446 6.97332127 198.67080045
Te 2.04154428 9.46639909 201.39947404
Bi -0.15828854 8.18616334 203.04540391
Te -0.26028511 10.59656674 205.20641326
Bi 2.02200325 9.31971858 1.55966988
Te -0.06567231 8.10205032 3.44903917
Te 2.44303879 9.53497664 6.49839870
Bi 0.20063431 8.22467413 8.04453667
Te 0.03372359 10.59645632 10.27047720
Bi 2.33340638 9.43002513 12.18022677
Te 0.27916414 8.24284872 14.13959717
Te 2.39747777 9.15204906 17.19309065
Bi 0.15471960 7.83379597 18.73349380
Te -0.02368028 10.20204537 20.96597141
Bi 2.28332637 9.04220639 22.86809201
Te 0.23287905 7.85543232 24.82930071
Te 2.11523336 9.11122519 27.90601276
Bi -0.13390229 7.79997645 29.44429293
Te -0.31719672 10.16233944 31.68090452
Bi 1.99360521 9.00407106 33.58013010
Te -0.05369126 7.81329453 35.54299080
Te 1.82317544 9.07112973 38.62048753
Bi -0.42294200 7.75619971 40.16002400
Te -0.60311258 10.11999720 42.39469689
Bi 1.70486403 8.95878358 44.29727518
Te -0.34797724 7.77363228 46.26122573
Te 1.76320435 8.68051929 49.31680804
Bi -0.47747513 7.35903451 50.85749464
Te -0.65335117 9.72825420 53.08860372
Bi 1.65135082 8.56573800 54.99369134
Te -0.40395000 7.38419998 56.95648475
Te 1.71090472 8.28935006 60.01132101
Bi -0.53323535 6.97327649 61.55167845
Te -0.71174996 9.34168344 63.78436482
Bi 1.59517308 8.18149814 65.68695659
Te -0.45329731 6.99048393 67.64747785
Te 1.59459729 7.95451010 70.72133315
Bi -0.65406291 6.64831246 72.26471688
Te -0.82984892 9.01603545 74.49609911
Bi 1.47239681 7.85202350 76.40319377
Te -0.57683531 6.65570876 78.36550798
Te 1.85574863 8.04328452 81.39609194
Bi -0.36037465 6.75350111 83.00115038
Te -0.47800835 9.15467884 85.19001735
Bi 1.76927815 7.95891116 87.15492500
Te -0.31794053 6.74205917 89.05811132
Te 3.84521695 9.13101587 91.69136242
Bi 1.73916854 7.90349659 93.55122543
Te 1.78786807 10.40169591 95.58070591
Bi 3.87614573 9.11321081 97.68737738
Te 1.69204334 7.84156762 99.37050181
Te -0.41142892 6.61045320 102.08149449
Sb -0.41957857 9.07782312 103.77067696
Te 1.72820051 7.82498012 105.66454928
Sb -0.42569118 6.56961417 107.55188217
Te -0.43303644 9.03743588 109.24350743
Te 1.71381070 7.77911296 111.96692725
Sb 1.70991917 10.24895458 113.65436665
Te 3.85464366 8.99430032 115.55605412
Sb 1.70680830 7.74236789 117.45484477
Te 1.70272850 10.21210028 119.14232329
Te -0.44745877 8.95392850 121.86024457
Sb -0.45187656 11.42346297 123.54816630
Te 1.69322078 10.16902871 125.44902546
Sb -0.45517384 8.91677907 127.34680321
Te -0.45961062 11.38630241 129.03472575
Te -0.45907769 6.40624419 131.73068704
Sb -0.46355119 8.87574627 133.41865740
Te 1.68158507 7.62133529 135.31942505
Sb -0.46687339 6.36904933 137.21708656
Te -0.47134904 8.83855017 138.90505729
Te 1.67260177 7.57856352 141.62646388
Sb 1.66811987 10.04806065 143.31444155
Te 3.81326231 8.79365302 145.21519555
Sb 1.66479441 7.54136194 147.11284009
Te 1.66031305 10.01085903 148.80081805
Te -0.48933932 8.75299288 151.51911801
Sb -0.49382054 11.22249037 153.20709536
Te 1.65132145 9.96808243 155.10785011
Sb -0.49714589 8.71579173 157.00549517
Te -0.50162710 11.18528902 158.69347354
Te -0.50103228 6.20526569 161.38947110
Sb -0.50551452 8.67476282 163.07745159
Te 1.63962878 7.42035595 164.97820170
Sb -0.50883987 6.16806427 166.87584926
Te -0.51332264 8.63756065 168.56381725
Te 1.63062965 7.37757463 171.28534833
Sb 1.62614672 9.84707173 172.97327625
Te 3.77128967 8.59266431 174.87412898
Sb 1.62284251 7.34038262 176.77163850
Te 1.61834990 9.80987102 178.46000065
Te -0.53154102 8.55191040 181.17451853
Sb -0.53560892 11.02164299 182.86356211
Te 1.60901777 9.76695574 184.76437278
Sb -0.53945110 8.51452210 186.66372213
Te -0.54325836 10.98456136 188.33766515
Te -0.15835984 8.25470009 191.51686559
Sb -0.15745094 10.72747440 193.18514170
Te 1.98171533 9.46955223 195.09191238
Sb -0.15673419 8.22289705 197.01018269
Te -0.15592236 10.69547854 198.69309465
Te -0.10870270 13.18855663 201.42176847
Bi -2.30853537 11.90832066 203.06769839
Te -2.41053177 14.31872404 205.22870774
Bi -0.12824358 13.04187567 1.58196415
Te -2.21591878 11.82420720 3.47133351
Te 0.29279197 13.25713390 6.52069306
Bi -1.94961259 11.94683149 8.06683146
Te -2.11652296 14.31861366 10.29277179
Bi 0.18315982 13.15218240 12.20252125
Te -1.87108220 11.96500551 14.16189133
Te 0.24723110 12.87420665 17.21538498
Bi -1.99552722 11.55595353 18.75578786
Te -2.17392703 13.92420260 20.98826613
Bi 0.13307995 12.76436356 22.89038690
Te -1.91736764 11.57758909 24.85159526
Te -0.03501356 12.83338275 27.92830731
Bi -2.28414915 11.52213384 29.46658730
Te -2.46744343 13.88449665 31.70319897
Bi -0.15664141 12.72622810 33.60242448
Te -2.20393776 11.53545124 35.56528508
Te -0.32707149 12.79328712 38.64278186
Bi -2.57318902 11.47835713 40.18231865
Te -2.75335929 13.84215433 42.41699134
Bi -0.44538275 12.68094070 44.31956965
Te -2.49822408 11.49578941 46.28352003
Te -0.38704230 12.40267698 49.33910213
Bi -2.62772198 11.08119193 50.87978874
Te -2.80359800 13.45041129 53.11089822
Bi -0.49889587 12.28789517 55.01598551
Te -2.55419642 11.10635683 56.97877880
Te -0.43934218 12.01150747 60.03361519
Bi -2.68348228 10.69543385 61.57397272
Te -2.86199672 13.06384085 63.80665936
Bi -0.55507361 11.90365520 65.70925102
Te -2.60354409 10.71264094 67.66977213
Te -0.55564963 11.67666752 70.74362748
Bi -2.80430986 10.37046992 72.28701102
Te -2.98009581 12.73819275 74.51839360
Bi -0.67785012 11.57418062 76.42548809
Te -2.72708228 10.37786588 78.38780205
Te -0.29449819 11.76544207 81.41838637
Bi -2.51062154 10.47565848 83.02344467
Te -2.62825474 12.87683608 85.21231199
Bi -0.38096839 11.68106830 87.17721960
Te -2.46818744 10.46421635 89.08040571
Te 1.69497016 12.85317320 91.71365688
Bi -0.41107806 11.62565381 93.57351977
Te -0.36237842 14.12385309 95.60300051
Bi 1.72589893 12.83536779 97.70967193
Te -0.45820348 11.56372476 99.39279632
Te -2.56167575 10.33261035 102.10378886
Sb -2.56982532 12.79998029 103.79297137
Te -0.42204624 11.54713733 105.68684379
Sb -2.57593797 10.29177140 107.57417675
Te -2.58328311 12.75959306 109.26580204
Te -0.43643612 11.50127035 111.98922176
Sb -0.44032744 13.97111178 113.67666124
Te 1.70439684 12.71645747 115.57834872
Sb -0.44343843 11.46452505 117.47713910
Te -0.44751826 13.93425741 119.16461779
Te -2.59770539 12.67608578 121.88253902
Sb -2.60212305 15.14562008 123.57046103
Te -0.45702589 13.89118591 125.47132012
Sb -2.60542062 12.63893626 127.36909769
Te -2.60985740 15.10845947 129.05702041
Te -2.60932449 10.12840145 131.75298132
Sb -2.61379786 12.59790357 133.44095183
Te -0.46866159 11.34349246 135.34171931
Sb -2.61712019 10.09120661 137.23938085
Te -2.62159576 12.56070724 138.92735169
Te -0.47764506 11.30072092 141.64875831
Sb -0.48212682 13.77021780 143.33673613
Te 1.66301560 12.51581019 145.23748997
Sb -0.48545226 11.26351891 147.13513458
Te -0.48993370 13.73301621 148.82311269
Te -2.63958602 12.47515000 151.54141231
Sb -2.64406721 14.94464739 153.22938982
Te -0.49892526 13.69023966 155.13014472
Sb -2.64739264 12.43794893 157.02778953
Te -2.65187388 14.90744620 158.71576823
Te -2.65127901 9.92742315 161.41176547
Sb -2.65576128 12.39692001 163.09974605
Te -0.51061803 11.14251317 165.00049614
Sb -2.65908657 9.89022163 166.89814365
Te -2.66356918 12.35971808 168.58611182
Te -0.51961724 11.09973213 171.30764273
Sb -0.52410015 13.56922898 172.99557069
Te 1.62104278 12.31482149 174.89642342
Sb -0.52740434 11.06253969 176.79393288
Te -0.53189691 13.53202806 178.48229503
Te -2.68178789 12.27406776 181.19681288
Sb -2.68585563 14.74380014 182.88585663
Te -0.54122896 13.48911279 184.78666723
Sb -2.68969778 12.23667922 186.68601644
Te -2.69350495 14.70671817 188.35995971
Te -2.30860657 11.97685758 191.53915986
Sb -2.30769776 14.44963174 193.20743621
Te -0.16853136 13.19170944 195.11420673
Sb -2.30698093 11.94505433 197.03247703
Te -2.30616893 14.41763562 198.71538901
Te -2.25894929 16.91071365 201.44406316
Bi -4.45878204 15.63047796 203.08999289
Te -4.56077832 18.04088111 205.25100228
Bi -2.27849006 16.76403298 1.60425889
Te -4.36616552 15.54636454 3.49362810
Te -1.85745441 16.97929127 6.54298792
Bi -4.09985922 15.66898876 8.08912579
Te -4.26676951 18.04077066 10.31506666
Bi -1.96708651 16.87433947 12.22481607
Te -4.02132874 15.68716249 14.18418616
Te -1.90301559 16.59636389 17.23767977
Bi -4.14577390 15.27811099 18.77808276
Te -4.32417332 17.64635980 21.01056126
Bi -2.01716677 16.48652078 22.91268161
Te -4.06761426 15.29974601 24.87388990
Te -2.18526005 16.55554001 27.95060208
Bi -4.43439578 15.24429130 29.48888194
Te -4.61768992 17.60665382 31.72549413
Bi -2.30688789 16.44838497 33.62471931
Te -4.35418431 15.25760821 35.58757969
Te -2.47731821 16.51544444 38.66507662
Bi -4.72343587 15.20051452 40.20461329
Te -4.90360587 17.56431161 42.43928619
Bi -2.59562928 16.40309755 44.34186434
Te -4.64847064 15.21794624 46.30581473
Te -2.53728900 16.12483433 49.36139681
Bi -4.77796864 14.80334945 50.90208323
Te -4.95384457 17.17256839 53.13319303
Bi -2.64914249 16.01005209 55.03828024
Te -4.70444303 14.82851369 57.00107345
Te -2.58958886 15.73366488 60.05590985
Bi -4.83372899 14.41759115 61.59626700
Te -5.01224348 16.78599776 63.82895398
Bi -2.70532037 15.62581219 65.73154557
Te -4.75379080 14.43479777 67.69206671
Te -2.70589634 15.39882499 70.76592195
Bi -4.95455683 14.09262720 72.30930548
Te -5.13034257 16.46034960 74.54068812
Bi -2.82809686 15.29633767 76.44778266
Te -4.87732900 14.10002273 78.41009656
Te -2.44474518 15.48759912 81.44068089
Bi -4.66086838 14.19781568 83.04573960
Te -4.77850152 16.59899325 85.23460649
Bi -2.53121534 15.40322551 87.19951404
Te -4.61843416 14.18637334 89.10270023
Te -0.45527654 16.57533021 91.73595132
Bi -2.56132479 15.34781088 93.59581439
Te -2.51262500 17.84601007 95.62529518
Bi -0.42434759 16.55752496 97.73196672
Te -2.60845029 15.28588177 99.41509071
Te -4.71192267 14.05476761 102.12608341
Sb -4.72007207 16.52213751 103.81526604
Te -2.57229299 15.26929447 105.70913818
Sb -4.72618467 14.01392860 107.59647140
Te -4.73352978 16.48175023 109.28809669
Te -2.58668285 15.22342752 112.01151640
Sb -2.59057410 17.69326887 113.69895598
Te -0.44584972 16.43861448 115.60064341
Sb -2.59368520 15.18668218 117.49943373
Te -2.59776475 17.65641438 119.18691257
Te -4.74795209 16.39824276 121.90483360
Sb -4.75236960 18.86777718 123.59275560
Te -2.60727244 17.61334290 125.49361479
Sb -4.75566718 16.36109334 127.39139230
Te -4.76010398 18.83061651 129.07931511
Te -4.75957114 13.85055874 131.77527568
Sb -4.76404439 16.32006058 133.46324642
Te -2.61890812 15.06564969 135.36401395
Sb -4.76736680 13.81336386 137.26167542
Te -4.77184238 16.28286445 138.94964635
Te -2.62789172 15.02287803 141.67105279
Sb -2.63237342 17.49237500 143.35903075
Te -0.48723105 16.23796744 145.25978469
Sb -2.63569893 14.98567607 147.15742924
Te -2.64018026 17.45517337 148.84540745
Te -4.78983282 16.19730701 151.56370685
Sb -4.79431385 18.66680443 153.25168418
Te -2.64917190 17.41239691 155.15243918
Sb -4.79763923 16.16010596 157.05008416
Te -4.80212033 18.62960321 158.73806284
Te -4.80152577 13.64958039 161.43405994
Sb -4.80600793 16.11907725 163.12204070
Te -2.66086473 14.86467029 165.02279066
Sb -4.80933316 13.61237881 166.92043833
Te -4.81381591 16.08187518 168.60840627
Te -2.66986393 14.82188933 171.32993715
Sb -2.67434682 17.29138618 173.01786542
Te -0.52920388 16.03697859 174.91871798
Sb -2.67765114 14.78469702 176.81622739
Te -2.68214343 17.25418518 178.50458955
Te -4.83203445 15.99622491 181.21910739
Sb -4.83610206 18.46595709 182.90815113
Te -2.69147552 17.21126993 184.80896190
Sb -4.83994424 15.95883626 186.70831107
Te -4.84375157 18.42887504 188.38225431
Te -4.45885332 15.69901500 191.56145433
Sb -4.45794419 18.17178913 193.22973084
Te -2.31877802 16.91386678 195.13650133
Sb -4.45722754 15.66721168 197.05477160
Te -4.45641557 18.13979272 198.73768390
Te -4.40919590 20.63287085 201.46635778
Bi -6.60902839 19.35263487 203.11228783
Te -6.71102482 21.76303832 205.27329729
Bi -4.42873660 20.48618996 1.62655377
Te -6.51641207 19.26852131 3.51592275
Te -4.00770073 20.70144843 6.56528278
Bi -6.25010541 19.39114594 8.11142087
Te -6.41701590 21.76292779 10.33736169
Bi -4.11733310 20.59649635 12.24711132
Te -6.17157511 19.40931958 14.20648114
Te -4.05326208 20.31852138 17.25997498
Bi -6.29602024 19.00026814 18.80037794
Te -6.47441986 21.36851676 21.03285639
Bi -4.16741323 20.20867786 22.93497687
Te -6.21786074 19.02190275 24.89618493
Te -4.33550668 20.27769735 27.97289708
Bi -6.58464233 18.96644856 29.51117692
Te -6.76793631 21.32881104 31.74778915
Bi -4.45713448 20.17054212 33.64701432
Te -6.50443083 18.97976524 35.60987466
Te -4.62756476 20.23760188 38.68737170
Bi -6.87368233 18.92267184 40.22690820
Te -7.05385244 21.28646866 42.46158122
Bi -4.74587574 20.12525464 44.36415924
Te -6.79871713 18.94010291 46.32810954
Te -4.68753554 19.84699163 49.38369185
Bi -6.92821515 18.52550648 50.92437802
Te -7.10409141 20.89472535 53.15548805
Bi -4.79938905 19.73220915 55.06057511
Te -6.85468936 18.55067057 57.02336847
Te -4.73983553 19.45582191 60.07820466
Bi -6.98397558 18.13974828 61.61856181
Te -7.16249005 20.50815472 63.85124898
Bi -4.85556691 19.34796913 65.75384026
Te -6.90403718 18.15695476 67.71436159
Te -4.85614310 19.12098210 70.78821665
Bi -7.10480363 17.81478436 72.33160027
Te -7.28058911 20.18250682 74.56298307
Bi -4.97834339 19.01849474 76.47007746
Te -7.02757567 17.82217985 78.43239156
Te -4.59499154 19.20975617 81.46297549
Bi -6.81111492 17.91997277 83.06803388
Te -6.92874795 20.32115000 85.25690132
Bi -4.68146183 19.12538258 87.22180905
Te -6.76868079 17.90853010 89.12499489
Te -2.60552326 20.29748737 91.75824601
Bi -4.71157132 19.06996789 93.61810912
Te -4.66287164 21.56816709 95.64758987
Bi -2.57459411 20.27968197 97.75426131
Te -4.75869674 19.00803865 99.43738546
Te -6.86216935 17.77692465 102.14837817
Sb -6.87031869 20.24429445 103.83756068
Te -4.72253965 18.99145151 105.73143293
Sb -6.87643132 17.73608574 107.61876603
Te -6.88377627 20.20390724 109.31039148
Te -4.73692942 18.94558455 112.03381111
Sb -4.74082056 21.41542588 113.72125069
Te -2.59609632 20.16077153 115.62293817
Sb -4.74393164 18.90883917 117.52172839
Te -4.74801121 21.37857128 119.20920738
Te -6.89819868 20.12039990 121.92712823
Sb -6.90261617 22.58993425 123.61505020
Te -4.75751915 21.33549998 125.51590939
Sb -6.90591379 20.08325038 127.41368693
Te -6.91035056 22.55277358 129.10160978
Te -6.90981765 17.57271586 131.79757032
Sb -6.91429109 20.04221773 133.48554098
Te -4.76915470 18.78780668 135.38630854
Sb -6.91761336 17.53552092 137.28397000
Te -6.92208892 20.00502134 138.97194098
Te -4.77813836 18.74503516 141.69334753
Sb -4.78261999 21.21453207 143.38132543
Te -2.63747770 19.96012441 145.28207934
Sb -4.78594558 18.70783314 147.17972381
Te -4.79042694 21.17733036 148.86770226
Te -6.94007942 19.91946427 151.58600137
Sb -6.94456045 22.38896149 153.27397902
Te -4.79941851 21.13455396 155.17473395
Sb -6.94788584 19.88226314 157.07237894
Te -6.95236700 22.35176036 158.76035751
Te -6.95177239 17.37173769 161.45635447
Sb -6.95625455 19.84123443 163.14433530
Te -4.81111123 18.58682758 165.04508523
Sb -6.95957980 17.33453589 166.94273271
Te -6.96406242 19.80403216 168.63070101
Te -4.82011058 18.54404648 171.35223181
Sb -4.82459341 21.01354327 173.04015991
Te -2.67945051 19.75913594 174.94101258
Sb -4.82789766 18.50685390 176.83852202
Te -4.83238998 20.97634213 178.52688439
Te -6.98228113 19.71838219 181.24140205
Sb -6.98634871 22.18811413 182.93044606
Te -4.84172202 20.93342685 184.83125673
Sb -6.99019101 19.68099310 186.73060571
Te -6.99399802 22.15103194 188.40454907
Te -6.60909988 19.42117224 191.58374902
Sb -6.60819081 21.89394625 193.25202550
Te -4.46902461 20.63602380 195.15879613
Sb -6.60747412 19.38936878 197.07706646
Te -6.60666205 21.86194992 198.75997873
Te -6.55944228 24.35502793 201.48865285
Bi -8.75927488 23.07479198 203.13458258
Te -8.86127127 25.48519518 205.29559209
Bi -6.57898308 24.20834714 1.64884888
Te -8.66665850 22.99067826 3.53821775
Te -6.15794721 24.42360555 6.58757791
Bi -8.40035182 23.11330300 8.13371597
Te -8.56726229 25.48508495 10.35965679
Bi -6.26757933 24.31865355 12.26940625
Te -8.32182161 23.13147647 14.22877620
Te -6.20350856 24.04067852 17.28227016
Bi -8.44626673 22.72242525 18.82267323
Te -8.62466621 25.09067392 21.05515165
Bi -6.31765971 23.93083496 22.95727188
Te -8.36810706 22.74405992 24.91848018
Te -6.48575311 23.99985437 27.99519234
Bi -8.73488879 22.68860574 29.53347226
Te -8.91818272 25.05096824 31.77008451
Bi -6.60738081 23.89269927 33.66930968
Te -8.65467724 22.70192210 35.63216987
Te -6.77781114 23.95975907 38.70966682
Bi -9.02392882 22.64482904 40.24920330
Te -9.20409869 25.00862574 42.48387648
Bi -6.89612210 23.84741179 44.38645472
Te -8.94896354 22.66225981 46.35040462
Te -6.83778191 23.56914877 49.40598708
Bi -9.07846180 22.24766370 50.94667306
Te -9.25433790 24.61688224 53.17778332
Bi -6.94963561 23.45436610 55.08287041
Te -9.00493599 22.27282746 57.04566376
Te -6.89008193 23.17797924 60.10049972
Bi -9.13422224 21.86190546 61.64085687
Te -9.31273658 24.23031183 63.87354414
Bi -7.00581347 23.07012603 65.77613527
Te -9.05428385 21.87911168 67.73665650
Te -7.00638975 22.84313925 70.81051152
Bi -9.25505011 21.53694165 72.35389520
Te -9.43083567 23.90466406 74.58527806
Bi -7.12858992 22.74065178 76.49237228
Te -9.17782212 21.54433688 78.45468610
Te -6.74523834 22.93191322 81.48527030
Bi -8.96136150 21.64212974 83.09032918
Te -9.07899473 24.04330720 85.27919615
Bi -6.83170843 22.84753941 87.24410373
Te -8.91892727 21.63068742 89.14728986
Te -4.75576962 24.01964429 91.78054093
Bi -6.86181787 22.79212487 93.64040381
Te -6.81311833 25.29032420 95.66988460
Bi -4.72484067 24.00183892 97.77655601
Te -6.90894336 22.73019572 99.45968008
Te -9.01241591 21.49908160 102.17067289
Sb -9.02056527 23.96645145 103.85985539
Te -6.87278633 22.71360846 105.75372763
Sb -9.02667782 21.45824282 107.64106067
Te -9.03402283 23.92606427 109.33268618
Te -6.88717609 22.66774158 112.05610575
Sb -6.89106716 25.13758295 113.74354536
Te -4.74634283 23.88292864 115.64523279
Sb -6.89417835 22.63099628 117.54402342
Te -6.89825784 25.10072854 119.23150213
Te -9.04844527 23.84255712 121.94942297
Sb -9.05286275 26.31209116 123.63734495
Te -6.90776563 25.05765697 125.53820422
Sb -9.05616034 23.80540746 127.43598165
Te -9.06059711 26.27493063 129.12390445
Te -9.06006434 21.29487286 131.81986498
Sb -9.06453758 23.76437472 133.50783579
Te -6.91940125 22.50996381 135.40860331
Sb -9.06786000 21.25767805 137.30626466
Te -9.07233544 23.72717840 138.99423573
Te -6.92838490 22.46719222 141.71564226
Sb -6.93286650 24.93668911 143.40362031
Te -4.78772430 23.68228149 145.30437411
Sb -6.93619222 22.42999023 147.20201857
Te -6.94067341 24.89948745 148.88999703
Te -9.09032598 23.64162132 151.60829602
Sb -9.09480707 26.11111863 153.29627363
Te -6.94966501 24.85671099 155.19702862
Sb -9.09813238 23.60442023 157.09467369
Te -9.10261351 26.07391752 158.78265230
Te -9.10201902 21.09389483 161.47864910
Sb -9.10650110 23.56339140 163.16662992
Te -6.96135778 22.30898461 165.06737993
Sb -9.10982639 21.05669305 166.96502753
Te -9.11430910 23.52618926 168.65299586
Te -6.97035726 22.26620354 171.37452639
Sb -6.97483998 24.73570029 173.06245454
Te -4.82969708 23.48129294 174.96330735
Sb -6.97814418 22.22901120 176.86081690
Te -6.98263658 24.69849922 178.54917897
Te -9.13252777 23.44053925 181.26369706
Sb -9.13659531 25.91027119 182.95274095
Te -6.99196867 24.65558394 184.85355166
Sb -9.14043739 23.40315013 186.75290057
Te -9.14424463 25.87318894 188.42684395
Te -8.75934641 23.14332936 191.60604398
Sb -8.75843735 25.61610324 193.27432049
Te -6.61927112 24.35818089 195.18109106
Sb -8.75772066 23.11152579 197.09936125
Te -8.75690860 25.58410680 198.78227368
Te -8.70968893 28.07718484 201.51094776
Bi -10.90952148 26.79694913 203.15687764
Te -11.01151793 29.20735225 205.31788712
Bi -8.72922957 27.93050409 1.67114376
Te -10.81690497 26.71283515 3.56051274
Te -8.30819368 28.14576273 6.60987311
Bi -10.55059825 26.83546014 8.15601122
Te -10.71750879 29.20724197 10.38195201
Bi -8.41782587 28.04081066 12.29170147
Te -10.47206799 26.85363358 14.25107129
Te -8.35375494 27.76283548 17.30456538
Bi -10.59651305 26.44458237 18.84496818
Te -10.77491276 28.81283096 21.07744659
Bi -8.46790613 27.65299208 22.97956718
Te -10.51835352 26.46621709 24.94077533
Te -8.63599957 27.72201156 28.01748754
Bi -10.88513514 26.41076275 29.55576758
Te -11.06842918 28.77312528 31.79237974
Bi -8.75762726 27.61485638 33.69160501
Te -10.80492343 26.42407893 35.65446522
Te -8.92805768 27.68191621 38.73196202
Bi -11.17417520 26.36698617 40.27149865
Te -11.35434512 28.73078278 42.50617179
Bi -9.04636850 27.56956877 44.40874978
Te -11.09920996 26.38441675 46.37269997
Te -8.98802856 27.29130579 49.42828226
Bi -11.22870837 25.96982085 50.96896840
Te -11.40458449 28.33903936 53.20007861
Bi -9.09988212 27.17652302 55.10516559
Te -11.15518240 25.99498443 57.06795894
Te -9.04032839 26.90013629 60.12279485
Bi -11.28446868 25.58406237 61.66315203
Te -11.46298303 27.95246882 63.89583926
Bi -9.15605997 26.79228294 65.79843054
Te -11.20453034 25.60126865 67.75895177
Te -9.15663626 26.56529631 70.83280654
Bi -11.40529667 25.25909868 72.37619008
Te -11.58108203 27.62682108 74.60757293
Bi -9.27883645 26.46280877 76.51466727
Te -11.32806887 25.26649388 78.47698110
Te -8.89548481 26.65407028 81.50756528
Bi -11.11160811 25.36428672 83.11262365
Te -11.22924100 27.76546399 85.30149100
Bi -8.98195486 26.56969643 87.26639869
Te -11.06917399 25.35284416 89.16958453
Te -6.90601603 27.74180149 91.80283561
Bi -9.01206447 26.51428183 93.66269836
Te -8.96336486 29.01248095 95.69217910
Bi -6.87508726 27.72399607 97.79885065
Te -9.05918983 26.45235277 99.48197488
Te -11.16266237 25.22123866 102.19296748
Sb -11.17081179 27.68860857 103.88215015
Te -9.02303267 26.43576547 105.77602232
Sb -11.17692437 25.18039980 107.66335539
Te -11.18426944 27.64822127 109.35498091
Te -9.03742262 26.38989863 112.07840049
Sb -9.04131382 28.85974002 113.76583999
Te -6.89658936 27.60508565 115.66752762
Sb -9.04442493 26.35315321 117.56631802
Te -9.04850438 28.82288562 119.25379673
Te -11.19869186 27.56471406 121.97171774
Sb -11.20310934 30.03424815 123.65963978
Te -9.05801223 28.77981396 125.56049884
Sb -11.20640688 27.52756448 127.45827646
Te -11.21084364 29.99708767 129.14619920
Te -11.21031090 25.01702995 131.84215956
Sb -11.21478418 27.48653181 133.53013049
Te -9.06964783 26.23212081 135.43089794
Sb -11.21810659 24.97983500 137.32855946
Te -11.22258202 27.44933539 139.01653039
Te -9.07863149 26.18934927 141.73793708
Sb -9.08311301 28.65884611 143.42591509
Te -6.93797083 27.40443867 145.32666888
Sb -9.08643866 26.15214728 147.22431332
Te -9.09091985 28.62164457 148.91229177
Te -11.24057257 27.36377845 151.63059070
Sb -11.24505356 29.83327580 153.31856833
Te -9.09991160 28.57886803 155.21932338
Sb -11.24837891 27.32657719 157.11696829
Te -11.25285995 29.79607451 158.80494699
Te -11.25226553 24.81605187 161.50094384
Sb -11.25674753 27.28554846 163.18892471
Te -9.11160430 26.03114158 165.08967465
Sb -11.26007291 24.77885002 166.98732232
Te -11.26455556 27.24834639 168.67529051
Te -9.12060379 25.98836072 171.39682114
Sb -9.12508651 28.45785748 173.08474955
Te -6.97994365 27.20344997 174.98560214
Sb -9.12839081 25.95116798 176.88311137
Te -9.13288312 28.42065625 178.57147380
Te -11.28277428 27.16269632 181.28599197
Sb -11.28684181 29.63242830 182.97503596
Te -9.14221504 28.37774099 184.87584659
Sb -11.29068395 27.12530702 186.77519550
Te -11.29449110 29.59534599 188.44913895
Te -10.90959296 26.86548637 191.62833876
Sb -10.90868383 29.33826028 193.29661533
Te -8.76951764 28.08033798 195.20338588
Sb -10.90796718 26.83368291 197.12165633
Te -10.90715514 29.30626393 198.80456869
Te -10.85993521 31.79934202 201.53324270
Bi -13.05976797 30.51910608 203.17917245
Te -13.16176442 32.92950919 205.34018215
Bi -10.87947611 31.65266098 1.69343871
Te -12.96715153 30.43499204 3.58280773
Te -10.45844000 31.86791960 6.63216796
Bi -12.70084471 30.55761717 8.17830592
Te -12.86775530 32.92939878 10.40424682
Bi -10.56807234 31.76296769 12.31399640
Te -12.62231452 30.57579073 14.27336650
Te -10.50400143 31.48499254 17.32686043
Bi -12.74675956 30.16673942 18.86726332
Te -12.92515929 32.53498803 21.09974169
Bi -10.61815258 31.37514909 23.00186223
Te -12.66859993 30.18837439 24.96307063
Te -10.78624596 31.44416856 28.03978287
Bi -13.03538157 30.13291973 29.57806277
Te -13.21867572 32.49528226 31.81467493
Bi -10.90787366 31.33701347 33.71390024
Te -12.95517002 30.14623623 35.67676063
Te -11.07830394 31.40407320 38.75425719
Bi -13.32442158 30.08914305 40.29379387
Te -13.50459153 32.45293969 42.52846700
Bi -11.19661489 31.29172579 44.43104504
Te -13.24945629 30.10657386 46.39499522
Te -11.13827487 31.01346267 49.45057743
Bi -13.37895476 29.69197790 50.99126362
Te -13.55483105 32.06119643 53.22237382
Bi -11.25012845 30.89868013 55.12746076
Te -13.30542882 29.71714145 57.09025418
Te -11.19057494 30.62229320 60.14509001
Bi -13.43471506 29.30621944 61.68544715
Te -13.61322953 31.67462586 63.91813433
Bi -11.30630644 30.51444008 65.82072564
Te -13.35477681 29.32342565 67.78124699
Te -11.30688271 30.28745341 70.85510162
Bi -13.55554320 28.98125573 72.39848529
Te -13.73132847 31.34897809 74.62986794
Bi -11.42908285 30.18496587 76.53696235
Te -13.47831516 28.98865064 78.49927609
Te -11.04573141 30.37622718 81.52986021
Bi -13.26185460 29.08644373 83.13491878
Te -13.37948746 31.48762122 85.32378588
Bi -11.13220148 30.29185343 87.28869339
Te -13.21942034 29.07500135 89.19187941
Te -9.05626253 31.46395847 91.82513032
Bi -11.16231096 30.23643895 93.68499301
Te -11.11361130 32.73463800 95.71447386
Bi -9.02533384 31.44615302 97.82114531
Te -11.20943629 30.17450976 99.50426955
Te -13.31290893 28.94339560 102.21526229
Sb -13.32105833 31.41076554 103.90444490
Te -11.17327922 30.15792254 105.79831698
Sb -13.32717097 28.90255680 107.68565002
Te -13.33451602 31.37037824 109.37727555
Te -11.18766909 30.11205581 112.10069511
Sb -11.19156033 32.58189700 113.78813474
Te -9.04683597 31.32724274 115.68982233
Sb -11.19467149 30.07531034 117.58861259
Te -11.19875112 32.54504261 119.27609138
Te -13.34893843 31.28687112 121.99401242
Sb -13.35335587 33.75640527 123.68193441
Te -11.20825875 32.50197113 125.58279357
Sb -13.35665341 31.24972156 127.48057111
Te -13.36109027 33.71924473 129.16849388
Te -13.36055747 28.73918697 131.86445432
Sb -13.36503065 31.20868883 133.55242523
Te -11.21989445 29.95427788 135.45319273
Sb -13.36835311 28.70199190 137.35085405
Te -13.37282858 31.17149232 139.03882510
Te -11.22887794 29.91150629 141.76023186
Sb -11.23335955 32.38100314 143.44820975
Te -9.08821734 31.12659560 145.34896351
Sb -11.23668525 29.87430438 147.24660805
Te -11.24116641 32.34380164 148.93458627
Te -13.39081901 31.08593546 151.65288543
Sb -13.39530012 33.55543282 153.34086301
Te -11.25015814 32.30102520 155.24161800
Sb -13.39862550 31.04873428 157.13926286
Te -13.40310664 33.51823160 158.82724164
Te -13.40251209 28.53820873 161.52323854
Sb -13.40699415 31.00770546 163.21121937
Te -11.26185091 29.75329865 165.11196929
Sb -13.41031945 28.50100714 167.00961693
Te -13.41480225 30.97050339 168.69758528
Te -11.27085025 29.71051776 171.41911594
Sb -11.27533294 32.18001449 173.10704431
Te -9.13019005 30.92560699 175.00789694
Sb -11.27863733 29.67332520 176.90540618
Te -11.28312969 32.14281310 178.59376863
Te -13.43302081 30.88485338 181.30828696
Sb -13.43708840 33.35458531 182.99733086
Te -11.29246166 32.09989808 184.89814142
Sb -13.44093048 30.84746426 186.79749035
Te -13.44473783 33.31750318 188.47143380
Te -13.05983947 30.58764328 191.65063356
Sb -13.05893043 33.06041719 193.31891020
Te -10.91976416 31.80249494 195.22568084
Sb -13.05821368 30.55583979 197.14395119
Te -13.05740161 33.02842084 198.82686348
Te -13.01018175 35.52149898 201.55553768
Bi -15.21001459 34.24126302 203.20146741
Te -15.31201088 36.65166613 205.36247685
Bi -13.02972252 35.37481814 1.71573352
Te -15.11739800 34.15714916 3.60510259
Te -12.60868640 35.59007678 6.65446273
Bi -14.85109120 34.27977436 8.20060075
Te -15.01800194 36.65155598 10.42654178
Bi -12.71831898 35.48512487 12.33629132
Te -14.77256113 34.29794799 14.29566154
Te -12.65424791 35.20714946 17.34915541
Bi -14.89700613 33.88889636 18.88955821
Te -15.07540574 36.25714496 21.12203661
Bi -12.76839899 35.09730616 23.02415722
Te -14.81884634 33.91053154 24.98536552
Te -12.93649224 35.16632540 28.06207792
Bi -15.18562813 33.85507680 29.60035777
Te -15.36892223 36.21743924 31.83696992
Bi -13.05812020 35.05917061 33.73619528
Te -15.10541661 33.86839333 35.69905556
Te -13.22855040 35.12623000 38.77655230
Bi -15.47466790 33.81129985 40.31608886
Te -15.65483791 36.17509689 42.55076191
Bi -13.34686131 35.01388293 44.45334006
Te -15.39970268 33.82873107 46.41729031
Te -13.28852134 34.73561951 49.47287249
Bi -15.52920135 33.41413484 51.01355879
Te -15.70507718 35.78335355 53.24466893
Bi -13.40037497 34.62083718 55.14975612
Te -15.45567561 33.43929868 57.11254944
Te -13.34082144 34.34445024 60.16738505
Bi -15.58496164 33.02837654 61.70774225
Te -15.76347581 35.39678308 63.94042937
Bi -13.45655276 34.23659717 65.84302069
Te -15.50502315 33.04558274 67.80354191
Te -13.45712915 34.00961046 70.87739656
Bi -15.70578951 32.70341290 72.42078025
Te -15.88157503 35.07113524 74.65216304
Bi -13.57932926 33.90712298 76.55925747
Te -15.62856164 32.71080774 78.52157115
Te -13.19597786 34.09838419 81.55215491
Bi -15.41210108 32.80860090 83.15721345
Te -15.52973415 35.20977810 85.34608061
Bi -13.28244785 34.01401049 87.31098829
Te -15.36966690 32.79715810 89.21417421
Te -11.20650909 35.18611555 91.84742506
Bi -13.31255753 33.95859592 93.70728782
Te -13.26385807 36.45679503 95.73676848
Bi -11.17558037 35.16831019 97.84343994
Te -13.35968280 33.89666694 99.52656431
Te -15.46315525 32.66555269 102.23755690
Sb -15.47130493 35.13292258 103.92673959
Te -13.32352568 33.88007976 105.82061174
Sb -15.47741753 32.62471395 107.70794487
Te -15.48476258 35.09253546 109.39957010
Te -13.33791582 33.83421268 112.12298984
Sb -13.34180695 36.30405407 113.81042936
Te -11.19708257 35.04939988 115.71211685
Sb -13.34491792 33.79746745 117.61090707
Te -13.34899773 36.26719980 119.29838606
Te -15.49918495 35.00902807 122.01630707
Sb -15.50360257 37.47856230 123.70422914
Te -13.35850536 36.22412815 125.60508833
Sb -15.50690004 34.97187861 127.50286582
Te -15.51133689 37.44140193 129.19078850
Te -15.51080396 32.46134401 131.88674901
Sb -15.51527734 34.93084588 133.57471992
Te -13.37014095 33.67643494 135.47548740
Sb -15.51859970 32.42414903 137.37314881
Te -15.52307508 34.89364951 139.06111971
Te -13.37912450 33.63366318 141.78252649
Sb -13.38360617 36.10316031 143.47050424
Te -11.23846397 34.84875269 145.37125822
Sb -13.38693179 33.59646146 147.26890276
Te -13.39141307 36.06595878 148.95688103
Te -15.54106570 34.80809261 151.67518030
Sb -15.54554676 37.27758998 153.36315777
Te -13.40040474 36.02318228 155.26391270
Sb -15.54887202 34.77089139 157.16155772
Te -15.55335328 37.24038872 158.84953615
Te -15.55275865 32.26036591 161.54553321
Sb -15.55724073 34.72986251 163.23351414
Te -13.41209739 33.47545573 165.13426404
Sb -15.56056602 32.22316415 167.03191159
Te -15.56504874 34.69266046 168.71987984
Te -13.42109670 33.43267479 171.44141062
Sb -13.42557951 35.90217142 173.12933900
Te -11.28043658 34.64776401 175.03019165
Sb -13.42888383 33.39548216 176.92770082
Te -13.43337619 35.86497032 178.61606331
Te -15.58326725 34.60701044 181.33058183
Sb -15.58733506 37.07674250 183.01962558
Te -13.44270833 35.82205511 184.92043611
Sb -15.59117705 34.56962130 186.81978510
Te -15.59498441 37.03966026 188.49372857
Te -15.21008602 34.30980017 191.67292844
Sb -15.20917693 36.78257409 193.34120500
Te -13.07001069 35.52465189 195.24797567
Sb -15.20846023 34.27799688 197.16624597
Te -15.20764823 36.75057789 198.84915842
Te -15.16042843 39.24365592 201.57783222
Bi -17.36026118 37.96341998 203.22376209
Te -17.46225772 40.37382342 205.38477138
Bi -15.17996912 39.09697520 1.73802807
Te -17.26764440 37.87930669 3.62739733
Te -14.75893316 39.31223348 6.67675750
Bi -17.00133779 38.00193125 8.22289550
Te -17.16824873 40.37371344 10.44883631
Bi -14.86856586 39.20728222 12.35858584
Te -16.92280786 38.02010523 14.31795617
Te -14.80449443 38.92930620 17.37145017
Bi -17.04725268 37.61105318 18.91185308
Te -17.22565262 39.97930224 21.14433134
Bi -14.91864568 38.81946331 23.04645208
Te -16.96909311 37.63268885 25.00766048
Te -15.08673890 38.88848228 28.08437281
Bi -17.33587465 37.57723370 29.62265274
Te -17.51916896 39.93959636 31.85926465
Bi -15.20836686 38.78132797 33.75849011
Te -17.25566327 37.59055076 35.72135044
Te -15.37879684 38.84838684 38.79884706
Bi -17.62491434 37.53345665 40.33838371
Te -17.80508464 39.89725381 42.57305657
Bi -15.49710805 38.73604016 44.47563496
Te -17.54994936 37.55088847 46.43958517
Te -15.43876807 38.45777636 49.49516749
Bi -17.67944781 37.13629178 51.03585407
Te -17.85532368 39.50551071 53.26696374
Bi -15.55062160 38.34299440 55.17205097
Te -17.60592221 37.16145589 57.13484419
Te -15.49106807 38.06660714 60.18967995
Bi -17.73520812 36.75053366 61.73003735
Te -17.91372248 39.11894044 63.96272411
Bi -15.60679935 37.95875454 65.86531556
Te -17.65526968 36.76773992 67.82583670
Te -15.60737558 37.73176756 70.89969142
Bi -17.85603601 36.42557001 72.44307519
Te -18.03182149 38.79329243 74.67445764
Bi -15.72957580 37.62928021 76.58155202
Te -17.77880809 36.43296509 78.54386587
Te -15.34622452 37.82054151 81.57444966
Bi -17.56234768 36.53075785 83.17950845
Te -17.67998049 38.93193548 85.36837538
Bi -15.43269427 37.73616760 87.33328296
Te -17.51991333 36.51931551 89.23646900
Te -13.35675568 38.90827252 91.86971978
Bi -15.46280417 37.68075289 93.72958239
Te -15.41410469 40.17895220 95.75906308
Bi -13.32582700 38.89046732 97.86573458
Te -15.50992942 37.61882411 99.54885900
Te -17.61340181 36.38770977 102.25985148
Sb -17.62155138 38.85507967 103.94903400
Te -15.47377225 37.60223681 105.84290633
Sb -17.62766412 36.34687089 107.73023939
Te -17.63500930 38.81469258 109.42186461
Te -15.48816233 37.55636981 112.14528444
Sb -15.49205364 40.02621141 113.83272382
Te -13.34732915 38.77155698 115.73441144
Sb -15.49516465 37.51962453 117.63320197
Te -15.49924439 39.98935693 119.32068046
Te -17.64943158 38.73118512 122.03860171
Sb -17.65384943 41.20071957 123.72652360
Te -15.50875197 39.94628533 125.62738277
Sb -17.65714665 38.69403580 127.52516040
Te -17.66158356 41.16355911 129.21308307
Te -17.66105061 36.18350121 131.90904386
Sb -17.66552391 38.65300309 133.59701454
Te -15.52038766 37.39859198 135.49778198
Sb -17.66884618 36.14630604 137.39544359
Te -17.67332188 38.61580668 139.08341446
Te -15.52937110 37.35582030 141.80482098
Sb -15.53385290 39.82531739 143.49279874
Te -13.38871073 38.57090984 145.39355272
Sb -15.53717840 37.31861880 147.29119743
Te -15.54165967 39.78811595 148.97917547
Te -17.69131214 38.53024973 151.69747476
Sb -17.69579334 40.99974719 153.38545229
Te -15.55065136 39.74533939 155.28620705
Sb -17.69911855 38.49304866 157.18385221
Te -17.70359991 40.96254599 158.87183052
Te -17.70300522 35.98252295 161.56782793
Sb -17.70748724 38.45201968 163.25580877
Te -15.56234412 37.19761267 165.15655871
Sb -17.71081259 35.94532116 167.05420633
Te -17.71529548 38.41481754 168.74217448
Te -15.57134334 37.15483173 171.46370539
Sb -15.57582615 39.62432854 173.15163368
Te -13.43068324 38.36992102 175.05248628
Sb -15.57913043 37.11763942 176.94999574
Te -15.58362271 39.58712748 178.63835789
Te -17.73351383 38.32916731 181.35287646
Sb -17.73758172 40.79889971 183.04192010
Te -15.59295503 39.54421231 184.94273085
Sb -17.74142385 38.29177852 186.84208003
Te -17.74523109 40.76181793 188.51602310
Te -17.36033247 38.03195713 191.69522324
Sb -17.35942344 40.50473101 193.36349985
Te -15.22025724 39.24680876 195.27027043
Sb -17.35870681 38.00015379 197.18854091
Te -17.35789479 40.47273500 198.87145320
Te -17.31067500 42.96581314 201.60012676
Bi -19.51050782 41.68557732 203.24605650
Te -19.61250463 44.09598081 205.40706570
Bi -17.33021591 42.81913250 1.76032239
Te -19.41789123 41.60146399 3.64969173
Te -16.90917993 43.03439075 6.69905172
Bi -19.15158458 41.72408843 8.24518988
Te -19.31849563 44.09587059 10.47113058
Bi -17.01881263 42.92943955 12.38088042
Te -19.07305482 41.74226263 14.34025066
Te -16.95474107 42.65146309 17.39374453
Bi -19.19749942 41.33321027 18.93414743
Te -19.37589926 43.70145932 21.16662553
Bi -17.06889254 42.54162060 23.06874658
Te -19.11934010 41.35484611 25.02995497
Te -17.23698558 42.61063901 28.10666714
Bi -19.48612135 41.29939077 29.64494744
Te -19.66941574 43.66175348 31.88155892
Bi -17.35861375 42.50348501 33.78078446
Te -19.40591012 41.31270802 35.74364488
Te -17.52904334 42.57054381 38.82114175
Bi -19.77516082 41.25561384 40.36067839
Te -19.95533162 43.61941097 42.59535094
Bi -17.64735476 42.45819744 44.49792920
Te -19.70019605 41.27304594 46.46187979
Te -17.58901477 42.17993328 49.51746205
Bi -19.82969446 40.85844875 51.05814881
Te -20.00557033 43.22766798 53.28925814
Bi -17.70086819 42.06515171 55.19434566
Te -19.75616903 40.88361335 57.15713888
Te -17.64131442 41.78876418 60.21197459
Bi -19.88545464 40.47269066 61.75233191
Te -20.06396900 42.84109758 63.98501864
Bi -17.75704604 41.68091179 65.88761023
Te -19.80551640 40.48989737 67.84813145
Te -17.75762206 41.45392454 70.92198603
Bi -20.00628253 40.14772706 72.46536978
Te -20.18206796 42.51544956 74.69675221
Bi -17.87982237 41.35143757 76.60384693
Te -19.92905477 40.15512236 78.56616051
Te -17.49647114 41.54269855 81.59674421
Bi -19.71259414 40.25291506 83.20180315
Te -19.83022743 42.65409260 85.39066978
Bi -17.58294135 41.45832475 87.35557755
Te -19.67016029 40.24147275 89.25876343
Te -15.50700235 42.63042976 91.89201420
Bi -17.61305083 41.40291031 93.75187698
Te -17.56435145 43.90110966 95.78135751
Bi -15.47607377 42.61262448 97.88802878
Te -17.66017624 41.34098136 99.57115342
Te -19.76364864 40.10986706 102.28214600
Sb -19.77179822 42.57723697 103.97132834
Te -17.62401900 41.32439389 105.86520067
Sb -19.77791075 40.06902830 107.75253379
Te -19.78525602 42.53684997 109.44415899
Te -17.63840914 41.27852706 112.16757893
Sb -17.64230041 43.74836861 113.85501830
Te -15.49757590 42.49371417 115.75670588
Sb -17.64541134 41.24178173 117.65549644
Te -17.64949121 43.71151428 119.34297486
Te -19.79967831 42.45334225 122.06089631
Sb -19.80409628 44.92287687 123.74881787
Te -17.65899889 43.66844266 125.64967721
Sb -19.80739339 42.41619300 127.54745492
Te -19.81183048 44.88571645 129.23537735
Te -19.81129724 39.90565840 131.93133856
Sb -19.81577059 42.37516029 133.61930915
Te -17.67063431 41.12074903 135.52007665
Sb -19.81909299 39.86846323 137.41773811
Te -19.82356864 42.33796393 139.10570893
Te -17.67961787 41.07797743 141.82711545
Sb -17.68409962 43.54747460 143.51509322
Te -15.53895725 42.29306708 145.41584722
Sb -17.68742509 41.04077593 147.31349184
Te -17.69190647 43.51027310 149.00146969
Te -19.84155878 42.25240690 151.71976927
Sb -19.84604002 44.72190445 153.40774666
Te -17.70089807 43.46749664 155.30850161
Sb -19.84936527 42.21520586 157.20614670
Te -19.85384651 44.68470325 158.89412500
Te -19.85325195 39.70468003 161.59012260
Sb -19.85773395 42.17417678 163.27810330
Te -17.71259068 40.91976985 165.17885328
Sb -19.86105926 39.66747836 167.07650084
Te -19.86554198 42.13697472 168.76446896
Te -17.72158994 40.87698882 171.48600000
Sb -17.72607295 43.34648566 173.17392814
Te -15.58092995 42.09207825 175.07478092
Sb -17.72937691 40.83979639 176.97229031
Te -17.73386958 43.30928481 178.66065248
Te -19.88376069 42.05132456 181.37517087
Sb -19.88782853 44.52105699 183.06421444
Te -17.74320180 43.26636968 184.96502525
Sb -19.89167063 42.01393587 186.86437457
Te -19.89547797 44.48397536 188.53831746
Te -19.51057919 41.75411417 191.71751790
Sb -19.50967015 44.22688829 193.38579428
Te -17.37050393 42.96896597 195.29256497
Sb -19.50895346 41.72231101 197.21083538
Te -19.50814146 44.19489228 198.89374745
Te -19.46092168 46.68797014 201.62242098
Bi -21.66075470 45.40773455 203.26835070
Te -21.76275158 47.81813801 205.42936000
Bi -19.48046281 46.54128984 1.78261651
Te -21.56813799 45.32362146 3.67198606
Te -19.05942701 46.75654762 6.72134584
Bi -21.30183146 45.44624560 8.26748418
Te -21.46874246 47.81802788 10.49342453
Bi -19.16905988 46.65159680 12.40317450
Te -21.22330215 45.46442009 14.36254487
Te -19.10498816 46.37361997 17.41603853
Bi -21.34774615 45.05536717 18.95644197
Te -21.52614627 47.42361666 21.18891933
Bi -19.21913947 46.26377797 23.09104042
Te -21.26958688 45.07700373 25.05224893
Te -19.38723239 46.33279608 28.12896109
Bi -21.63636780 45.02154781 29.66724155
Te -21.81966259 47.38391085 31.90385268
Bi -19.50886070 46.22564246 33.80307839
Te -21.55615706 45.03486580 35.76593921
Te -19.67929018 46.29270064 38.84343572
Bi -21.92540766 44.97777101 40.38297257
Te -22.10557847 47.34156844 42.61764486
Bi -19.79760166 46.18035483 44.52022311
Te -21.85044298 44.99520353 46.48417395
Te -19.73926158 45.90209027 49.53975623
Bi -21.97994104 44.58060583 51.08044299
Te -22.15581733 46.94982543 53.31155211
Bi -19.85111514 45.78730900 55.21663968
Te -21.90641591 44.60577096 57.17943303
Te -19.79156129 45.51092107 60.23426894
Bi -22.03570131 44.19484780 61.77462648
Te -22.21421605 46.56325485 64.00731274
Bi -19.90729302 45.40306937 65.90990460
Te -21.95576339 44.21205501 67.87042588
Te -19.90786888 45.17608137 70.94428036
Bi -22.15652907 43.86988394 72.48766447
Te -22.33231473 46.23760704 74.71904653
Bi -20.03006912 45.07359476 76.62614113
Te -22.07930146 43.87728010 78.58845497
Te -19.64671774 45.26485568 81.61903856
Bi -21.86284093 43.97507238 83.22409759
Te -21.98047425 46.37625001 85.41296398
Bi -19.73318803 45.18048219 87.37787173
Te -21.82040691 43.96363020 89.28105790
Te -17.65724936 46.35258712 91.91430851
Bi -19.76329761 45.12506753 93.77417128
Te -19.71459831 47.62326684 95.80365185
Bi -17.62632063 46.33478189 97.91032322
Te -19.81042304 45.06313871 99.59344780
Te -21.91389534 43.83202440 102.30444030
Sb -21.92204500 46.29939434 103.99362268
Te -19.77426575 45.04655127 105.88749508
Sb -21.92815763 43.79118553 107.77482820
Te -21.93550293 46.25900728 109.46645320
Te -19.78865585 45.00068427 112.18987339
Sb -19.79254733 47.47052592 113.87731264
Te -17.64782281 46.21587155 115.77900017
Sb -19.79565813 44.96393899 117.67779070
Te -19.79973797 47.43367163 119.36526911
Te -21.94992520 46.17549953 122.08319063
Sb -21.95434290 48.64503429 123.77111204
Te -19.80924579 47.39059981 125.67197140
Sb -21.95764025 46.13835035 127.56974923
Te -21.96207732 48.60787392 129.25767144
Te -21.96154387 43.62781545 131.95363306
Sb -21.96601742 46.09731751 133.64160361
Te -19.82088118 44.84290644 135.54237113
Sb -21.96933978 43.59062056 137.44003263
Te -21.97381540 46.06012129 139.12800337
Te -19.82986457 44.80013464 141.84940999
Sb -19.83434633 47.26963178 143.53738762
Te -17.68920400 46.01522416 145.43814166
Sb -19.83767187 44.76293312 147.33578610
Te -19.84215345 47.23243050 149.02376400
Te -21.99180568 45.97456421 151.74206386
Sb -21.99628686 48.44406174 153.43004106
Te -19.85114489 47.18965396 155.33079595
Sb -21.99961217 45.93736310 157.22844099
Te -22.00409349 48.40686050 158.91641916
Te -22.00349865 43.42683731 161.61241720
Sb -22.00798074 45.89633420 163.30039788
Te -19.86283745 44.64192713 165.20114781
Sb -22.01130585 43.38963541 167.09879544
Te -22.01578876 45.85913215 168.78676320
Te -19.87183674 44.59914609 171.50829464
Sb -19.87631971 47.06864294 173.19622270
Te -17.73117674 45.81423536 175.09707520
Sb -19.87962373 44.56195370 176.99458480
Te -19.88411642 47.03144236 178.68294678
Te -22.03400747 45.77348172 181.39746532
Sb -22.03807540 48.24321437 183.08650865
Te -19.89344861 46.98852704 184.98731940
Sb -22.04191734 45.73609330 186.88666884
Te -22.04572486 48.20613278 188.56061154
Te -21.66082598 45.47627114 191.73981234
Sb -21.65991690 47.94904545 193.40808844
Te -19.52075087 46.69112322 195.31485931
Sb -21.65920034 45.44446825 197.23312976
Te -21.65838833 47.91704960 198.91604159
Te -21.61116871 50.41012774 201.64471517
Bi -23.81100155 49.12989186 203.29064489
Te -23.91299859 51.54029553 205.45165389
Bi -21.63070995 50.26344723 1.80491069
Te -23.71838513 49.04577893 3.69428015
Te -21.20967411 50.47870473 6.74363958
Bi -23.45207861 49.16840254 8.28977803
Te -23.61898961 51.54018519 10.51571808
Bi -21.31930708 50.37375433 12.42546836
Te -23.37354929 49.18657760 14.38483867
Te -21.25523514 50.09577717 17.43833224
Bi -23.49799322 48.77752432 18.97873557
Te -23.67639307 51.14577391 21.21121285
Bi -21.36938640 49.98593531 23.11333425
Te -23.41983418 48.79916138 25.07454275
Te -21.53747923 50.05495331 28.15125474
Bi -23.78661478 48.74370493 29.68953524
Te -23.96990977 51.10606831 31.92614614
Bi -21.65910758 49.94780006 33.82537193
Te -23.70640399 48.75702358 35.78823261
Te -21.82953722 50.01485805 38.86572941
Bi -24.07565467 48.69992811 40.40526624
Te -24.25582543 51.06372570 42.63993843
Bi -21.94784884 49.90251239 44.54251743
Te -24.00069023 48.71736092 46.50646790
Te -21.88950847 49.62424748 49.56204999
Bi -24.13018812 48.30276296 51.10273693
Te -24.30606431 50.67198264 53.33384558
Bi -22.00136235 49.50946659 55.23893372
Te -24.05666315 48.32792843 57.20172704
Te -21.94180822 49.23307820 60.25656272
Bi -24.18594823 47.91700492 61.79692035
Te -24.36446283 50.28541219 64.02960640
Bi -22.05753993 49.12522674 65.93219853
Te -24.10601050 47.93421267 67.89271988
Te -22.05811559 48.89823868 70.96657440
Bi -24.30677579 47.59204139 72.50995849
Te -24.48256157 49.95976428 74.74134032
Bi -22.18031593 48.79575227 76.64843506
Te -24.22954826 47.59943731 78.61074892
Te -21.79696458 48.98701300 81.64133268
Bi -24.01308782 47.69722962 83.24639151
Te -24.13072123 50.09840739 85.43525788
Bi -21.88343503 48.90263974 87.40016598
Te -23.97065391 47.68578757 89.30335208
Te -19.80749605 50.07474446 91.93660292
Bi -21.91354436 48.84722508 93.79646579
Te -21.86484531 51.34542443 95.82594606
Bi -19.77656745 50.05693943 97.93261725
Te -21.96066979 48.78529635 99.61574198
Te -24.06414219 47.55418161 102.32673451
Sb -24.07229179 50.02155188 104.01591696
Te -21.92451268 48.76870860 105.90978930
Sb -24.07840447 47.51334289 107.79712251
Te -24.08574983 49.98116475 109.48874749
Te -21.93890266 48.72284166 112.21216769
Sb -21.94279422 51.19268327 113.89960667
Te -19.79806965 49.93802893 115.80129434
Sb -21.94590503 48.68609632 117.70008503
Te -21.94998501 51.15582923 119.38756317
Te -24.10017206 49.89765699 122.10548486
Sb 5.99886406 0.25699080 123.48128351
Te -21.95949265 51.11275740 125.69426560
Sb -24.10788717 49.86050779 127.59204339
Te 5.99112978 0.21983050 128.96784266
Te -24.11179072 47.34997278 131.97592747
Sb -24.11626437 49.81947491 133.66389775
Te -21.97112812 48.56506385 135.56466538
Sb -24.11958657 47.31277789 137.46232704
Te -24.12406222 49.78227879 139.15029747
Te -21.98011144 48.52229189 141.87170411
Sb -21.98459339 50.99178921 143.55968165
Te -19.83945099 49.73738157 145.46043572
Sb -21.98791886 48.48509046 147.35808038
Te -21.99240044 50.95458809 149.04605811
Te -24.14205254 49.69672157 151.76435785
Sb 5.95692020 0.05601842 153.14021228
Te -22.00139188 50.91181143 155.35308998
Sb -24.14985914 49.65952051 157.25073521
Te -24.15434050 52.12901802 158.93871335
Te -24.15374535 47.14899434 161.63471168
Sb -24.15822769 49.61849153 163.32269210
Te -22.01308431 48.36408457 165.22344210
Sb -24.16155275 47.11179279 167.12108969
Te -24.16603573 49.58128961 168.80905758
Te -22.02208346 48.32130322 171.53058890
Sb -22.02656665 50.79080032 173.21851667
Te -19.88142372 49.53639280 175.11936923
Sb -22.02987063 48.28411107 177.01687913
Te -22.03436342 50.75359977 178.70524081
Te -24.18425440 49.49563909 181.41975939
Sb -24.18832237 51.96537183 183.10880261
Te -22.04369558 50.71068454 185.00961339
Sb -24.19216437 49.45825083 186.90896299
Te -24.19597201 51.92829055 188.58290548
Te -23.81107299 49.19842802 191.76210658
Sb -23.81016387 51.67120284 193.43038202
Te -21.67099788 50.41328056 195.33715331
Sb -23.80944721 49.16662554 197.25542392
Te -23.80863538 51.63920724 198.93833546
Te 10.50581378 1.94540778 201.31939246
Bi 8.40902260 0.72281809 203.20198397
Te 8.49774677 3.24428540 205.19742260
Bi 10.58058020 1.85089998 1.74442120
Te 8.37257409 0.56637419 3.36738939
Te 10.79596122 1.94421540 6.39254053
Bi 8.74328660 0.75277158 8.35319317
Te 8.89077497 3.30960136 10.28595064
Bi 10.87067362 1.96048546 12.49102041
Te 8.62924775 0.64484162 14.03583239
Te 10.74054980 1.54822066 17.09058631
Bi 8.68697117 0.36324470 19.05372682
Te 8.84410422 2.92379211 20.97930852
Bi 10.81480315 1.56576335 23.19131657
Te 8.56912677 0.25075694 24.73149823
Te 10.44570007 1.50856114 27.80882231
Bi 8.39838318 0.31776283 29.77163375
Te 8.55892766 2.88165074 31.69319139
Bi 10.52587483 1.52185840 33.90754113
Te 8.27671008 0.21058398 35.44576615
Te 10.15852889 1.46624254 38.52250902
Bi 8.10852587 0.27939408 40.48428004
Te 8.26585459 2.84199493 42.40825818
Bi 10.23701034 1.48760223 44.61908100
Te 7.99350061 0.16950696 46.15849876
Te 10.10943510 1.07446668 49.21323164
Bi -22.04934867 52.00317293 51.48825644
Te 8.20857669 2.45260278 53.10347792
Bi 10.18292711 1.09962262 55.31227699
Te -22.16120869 51.88840563 57.16516120
Te 10.05231084 0.68747480 59.90902940
Bi -22.10338869 51.61053002 62.18423696
Te 8.15738539 2.06043990 63.79749538
Bi 10.12792747 0.70320081 66.00909213
Te -22.22261644 51.50179355 67.86220154
Te 9.93019986 0.36239355 70.62347062
Bi -22.21983059 51.27629715 72.89403743
Te 8.03672026 1.72513517 74.51008364
Bi 10.01548232 0.37299254 76.71653398
Te -22.33426146 51.17747063 78.57273407
Te 10.27669353 0.49696622 81.30586821
Bi -21.90558304 51.39519689 83.52446869
Te 8.29875214 1.81363107 85.19170501
Bi 10.34007136 0.49776924 87.33971663
Te -21.97308579 51.32186627 89.26981778
Te 12.52871054 1.73594080 91.70544916
Bi 10.33842259 0.46084742 93.36593670
Te 10.27996511 2.89649390 95.50497963
Bi 12.48022925 1.67327967 97.51576908
Te 10.36863379 0.44262046 99.36297263
Te -21.93227462 51.26766923 102.33657169
Sb 8.17042601 1.62914552 103.70814340
Te 10.31297662 0.37319867 105.61604625
Sb -21.93351338 51.23419119 107.83557365
Te 8.16833888 1.59517397 109.20764056
Te 10.30942459 0.33354550 111.92693868
Sb 10.30435262 2.80269859 113.61546334
Te 12.44991302 1.54853840 115.51527716
Sb 10.30081408 0.29588939 117.41178532
Te 10.29593199 2.76515266 119.10025854
Te 8.14681232 1.50759263 121.81894544
Sb 8.14226823 3.97705369 123.50697769
Te 10.28745428 2.72267215 125.40762948
Sb 8.13891494 1.47034051 127.30514470
Te 8.13439016 3.93981253 128.99317666
Te -21.96840948 51.07002439 132.00135103
Sb 8.13055588 1.42931680 133.37721221
Te 10.27570309 0.17491203 135.27795507
Sb -21.97622611 51.03281752 137.48770904
Te 8.12274150 1.39211150 138.86356982
Te 10.26670201 0.13213021 141.58498208
Sb 10.26222166 2.60162849 143.27295821
Te 12.40736295 1.34722015 145.17371476
Sb 10.25889709 0.09492993 147.07136262
Te 10.25441631 2.56442805 148.75933915
Te 8.10476261 1.30656066 151.47763771
Sb 8.10028162 3.77605850 153.16561444
Te 10.24542330 2.52165041 155.06636999
Sb 8.09695676 1.26935980 156.96401655
Te 8.09247583 3.73885769 158.65199416
Te -22.01038612 50.86903312 161.66011345
Sb 8.08858815 1.22833088 163.03596818
Te -19.86972589 52.08412302 165.24884394
Sb -22.01819084 50.83183282 167.14649931
Te 8.08078386 1.19113093 168.52233981
Te -19.87871243 52.04134743 171.55601139
Sb 10.22026265 2.40064577 172.93181626
Te 12.36540295 1.14623596 174.83267758
Sb -19.88653688 52.00413973 177.04225481
Te 10.21244591 2.36344068 178.41844893
Te 8.06302949 1.10571498 181.13287207
Sb 8.05813606 3.57495649 182.82274721
Te 10.20378607 2.32084209 184.72256853
Sb 8.05531309 1.06857263 186.62144455
Te 8.05017562 3.53788947 188.29666778
Te 8.44845034 0.81546974 191.48362147
Sb 8.43863004 3.28207428 193.16460942
Te 10.58975964 2.03107723 195.06090826
Sb 8.43127832 0.77316043 196.93861613
Te 8.42175426 3.23973523 198.62845844
Te 8.35556691 5.66756543 201.34168618
Bi 6.25877549 4.44497558 203.22427744
Te 6.34750000 6.96644244 205.21971667
Bi 8.43033340 5.57305738 1.76671577
Te 6.22232666 4.28853160 3.38968325
Te 8.64571416 5.66637283 6.41483437
Bi 6.59303960 4.47492904 8.37548709
Te 6.74052798 7.03175854 10.30824455
Bi 8.72042672 5.68264263 12.51331439
Te 6.47900108 4.36699865 14.05812614
Te 8.59030237 5.27037846 17.11287992
Bi 6.53672394 4.08540221 19.07602050
Te 6.69385704 6.64594949 21.00160238
Bi 8.66455612 5.28792061 23.21361017
Te 6.41887976 3.97291378 24.75379185
Te 8.29545285 5.23071895 27.83111593
Bi 6.24813582 4.03992022 29.79392703
Te 6.40868089 6.60380793 31.71548522
Bi 8.37562796 5.24401570 33.92983483
Te 6.12646315 3.93274107 35.46805957
Te 8.00828167 5.18840055 38.54480237
Bi 5.95827873 4.00155159 40.50657297
Te 6.11560763 6.56415202 42.43055191
Bi 8.08676350 5.20975956 44.64137491
Te 5.84325322 3.89166389 46.18079252
Te 7.95918794 4.79662446 49.23552507
Bi 5.90385826 3.61512970 51.19842686
Te 6.05832989 6.17476028 53.12577155
Bi 8.03268008 4.82178001 55.33457080
Te 5.79199825 3.50036192 56.87533179
Te 7.90206348 4.40963266 59.93132290
Bi 5.84981800 3.22248660 61.89440744
Te 6.00713840 5.78259704 63.81978906
Bi 7.97768029 4.42535807 66.03138607
Te 5.73059055 3.11374989 67.57237240
Te 7.77995273 4.08455118 70.64576443
Bi 5.73337612 2.88825384 72.60420834
Te 5.88647326 5.44729263 74.53237737
Bi 7.86523514 4.09514992 76.73882784
Te 5.61894557 2.78942711 78.28290515
Te 8.12644628 4.21912376 81.32816216
Bi 6.04762381 3.00715355 83.23463995
Te 6.14850522 5.53578859 85.21399903
Bi 8.18982427 4.21992666 87.36201050
Te 5.98012108 2.93382292 88.97998902
Te 10.37846365 5.45809833 91.72774325
Bi 8.18817568 4.18300481 93.38823093
Te 8.12971830 6.61865119 95.52727392
Bi 10.32998243 5.39543700 97.53806330
Te 8.21838691 4.16477782 99.38526683
Te 6.02093232 2.87962583 102.04674303
Sb 6.02017908 5.35130286 103.73043770
Te 8.16272970 4.09535603 105.63834039
Sb 6.01969363 2.84614786 107.54574511
Te 6.01809195 5.31733134 109.22993489
Te 8.15917756 4.05570291 111.94923267
Sb 8.15410560 6.52485598 113.63775768
Te 10.29966596 5.27069569 115.53757130
Sb 8.15056716 4.01804685 117.43407966
Te 8.14568529 6.48731001 119.12255285
Te 5.99656533 5.22975017 121.84123953
Sb 5.99202129 7.69921104 123.52927193
Te 8.13720726 6.44482943 125.42992370
Sb 5.98866810 5.19249795 127.32743890
Te 5.98414333 7.66196982 129.01547097
Te 5.98479773 2.68198086 131.71152234
Sb 5.98030897 5.15147412 133.39950628
Te 8.12545614 3.89706940 135.30024922
Sb 5.97698086 2.64477416 137.19788024
Te 5.97249456 5.11426893 138.88586379
Te 8.11645504 3.85428758 141.60727616
Sb 8.11197478 6.32378599 143.29525223
Te 10.25711593 5.06937751 145.19600904
Sb 8.10865019 3.81708720 147.09365688
Te 8.10416944 6.28658526 148.78163330
Te 5.95451565 5.02871802 151.49993195
Sb 5.95003462 7.49821584 153.18790869
Te 8.09517633 6.24380772 155.08866437
Sb 5.94670985 4.99151715 156.98631094
Te 5.94222898 7.46101495 158.67428861
Te 5.94282086 2.48098982 161.37028474
Sb 5.93834118 4.95048835 163.05826220
Te 8.08348119 3.69607966 164.95901535
Sb 5.93501611 2.44378953 166.85667056
Te 5.93053679 4.91328851 168.54463391
Te 8.07449445 3.65330412 171.26618275
Sb 8.07001551 6.12280312 172.95411018
Te 10.21515578 4.86839346 174.85497162
Sb 8.06667029 3.61609629 176.75242605
Te 8.06219891 6.08559806 178.44074309
Te 5.91278240 4.82787240 181.15516607
Sb 5.90788917 7.29711387 182.84504138
Te 8.05353919 6.04299948 184.74486258
Sb 5.90506613 4.79072997 186.64373836
Te 5.89992882 7.26004680 188.31896197
Te 6.29820304 4.53762728 191.50591541
Sb 6.28838305 7.00423185 193.18690330
Te 8.43951256 5.75323478 195.08320234
Sb 6.28103136 4.49531789 196.96091007
Te 6.27150730 6.96189267 198.65075240
Te 6.20532000 9.38972280 201.36398045
Bi 4.10852864 8.16713297 203.24657197
Te 4.19725307 10.68859995 205.24201081
Bi 6.28008654 9.29521470 1.78900962
Te 4.07208008 8.01068888 3.41197739
Te 6.49546718 9.38853036 6.43712854
Bi 4.44279254 8.19708668 8.39778118
Te 4.59028143 10.75391585 10.33053883
Bi 6.57017997 9.40479957 12.53560849
Te 4.32875411 8.08915576 14.08042025
Te 6.44005552 8.99253591 17.13517394
Bi 4.38647706 7.80755959 19.09831466
Te 4.54361038 10.36810668 21.02389654
Bi 6.51430940 9.01007771 23.23590421
Te 4.26863303 7.69507120 24.77608571
Te 6.14520582 8.95287676 27.85341012
Bi 4.09788890 7.76207778 29.81622105
Te 4.25843409 10.32596534 31.73777942
Bi 6.22538092 8.96617265 33.95212889
Te 3.97621621 7.65489814 35.49035361
Te 5.85803463 8.91055814 38.56709647
Bi 3.80803172 7.72370890 40.52886707
Te 3.96536069 10.28630917 42.45284604
Bi 5.93651653 8.93191666 44.66366863
Te 3.69300654 7.61382125 46.20308642
Te 5.80894096 8.51878208 49.25781882
Bi 3.75361127 7.33728719 51.22072063
Te 3.90808297 9.89691745 53.14806564
Bi 5.88243330 8.54393724 55.35686464
Te 3.64175153 7.22251939 56.89762570
Te 5.75181640 8.13179013 59.95361692
Bi 3.69957117 6.94464397 61.91670165
Te 3.85689149 9.50475454 63.84208304
Bi 5.82743335 8.14751546 66.05368010
Te 3.58034355 6.83590719 67.59466635
Te 5.62970562 7.80670854 70.66805824
Bi 3.58312902 6.61041120 72.62650224
Te 3.73622642 9.16944979 74.55467158
Bi 5.71498823 7.81730724 76.76112176
Te 3.46869860 6.51158454 78.30519918
Te 5.97619935 7.94128115 81.35045609
Bi 3.89737692 6.72931101 83.25693405
Te 3.99825855 9.25794592 85.23629333
Bi 6.03957754 7.94208400 87.38430486
Te 3.82987422 6.65598016 89.00228309
Te 8.22821676 9.18025576 91.75003765
Bi 6.03792894 7.90516214 93.41052507
Te 5.97947135 10.34080833 95.54956827
Bi 8.17973552 9.11759422 97.56035761
Te 6.06814007 7.88693506 99.40756130
Te 3.87068535 6.60178318 102.06903729
Sb 3.86993214 9.07346018 103.75273204
Te 6.01248269 7.81751330 105.66063475
Sb 3.86944680 6.56830531 107.56803945
Te 3.86784521 9.03948854 109.25222929
Te 6.00893074 7.77786032 111.97152701
Sb 6.00385894 10.24701334 113.66005200
Te 8.14941918 8.99285292 115.55986565
Sb 6.00032022 7.74020421 117.45637376
Te 5.99543851 10.20946718 119.14484730
Te 3.84631869 8.95190742 121.86353382
Sb 3.84177458 11.42136829 123.55156641
Te 5.98696048 10.16698673 125.45221818
Sb 3.83842124 8.91465514 127.34973341
Te 3.83389645 11.38412694 129.03776550
Te 3.83455075 6.40413816 131.73381637
Sb 3.83006202 8.87363140 133.42180035
Te 5.97520921 7.61922697 135.32254348
Sb 3.82673393 6.36693148 137.22017437
Te 3.82224789 8.83642620 138.90815824
Te 5.96620812 7.57644495 141.62957044
Sb 5.96172793 10.04594316 143.31754673
Te 8.10686918 8.79153483 145.21830337
Sb 5.95840332 7.53924451 147.11595112
Te 5.95392278 10.00874237 148.80392775
Te 3.80426871 8.75087518 151.52222615
Sb 3.79978791 11.22037302 153.21020305
Te 5.94492936 9.96596505 155.11095876
Sb 3.79646279 8.71367444 157.00860533
Te 3.79198220 11.18317228 158.69658306
Te 3.79257391 6.20314720 161.39257877
Sb 3.78809434 8.67264572 163.08055648
Te 5.93323436 7.41823700 164.98130951
Sb 3.78476907 6.16594689 166.87896467
Te 3.78029004 8.63544567 168.56692824
Te 5.92424770 7.37546145 171.28847700
Sb 5.91976871 9.84496057 172.97640457
Te 8.06490899 8.59055071 174.87726594
Sb 5.91642345 7.33825363 176.77472026
Te 5.91195213 9.80775528 178.46303739
Te 3.76253550 8.55002984 181.17746012
Sb 3.75764242 11.01927113 182.86733569
Te 5.90329245 9.76515670 184.76715677
Sb 3.75481922 8.51288724 186.66603248
Te 3.74968219 10.98220380 188.34125645
Te 4.14795604 8.25978482 191.52820945
Sb 4.13813616 10.72638914 193.20919757
Te 6.28926589 9.47539219 195.10549638
Sb 4.13078441 8.21747535 196.98320400
Te 4.12126058 10.68404988 198.67304680
Te 4.05507320 13.11188020 201.38627471
Bi 1.95828182 11.88929022 203.26886592
Te 2.04700653 14.41075691 205.26430516
Bi 4.12983997 13.01737195 1.81130424
Te 1.92183328 11.73284611 3.43427177
Te 4.34522053 13.11068792 6.45942301
Bi 2.29254587 11.91924403 8.42007563
Te 2.44003484 14.47607299 10.35283357
Bi 4.41993350 13.12695660 12.55790320
Te 2.17850759 11.81131265 14.10271461
Te 4.28980871 12.71469360 17.15746851
Bi 2.23623036 11.52971704 19.12060892
Te 2.39336379 14.09026384 21.04619124
Bi 4.36406280 12.73223467 23.25819886
Te 2.11838644 11.41722798 24.79838017
Te 3.99495919 12.67503409 27.87570448
Bi 1.94764207 11.48423509 29.83851521
Te 2.10818756 14.04812243 31.76007403
Bi 4.07513456 12.68832952 33.97442363
Te 1.82596951 11.37705505 35.51264804
Te 3.70778780 12.63271558 38.58939082
Bi 1.65778485 11.44586637 40.55116126
Te 1.81511399 14.00846624 42.47514049
Bi 3.78626977 12.65407367 44.68596317
Te 1.54275982 11.33597810 46.22538056
Te 3.65869430 12.24093968 49.28011308
Bi 1.60336444 11.05944448 51.24301463
Te 1.75783628 13.61907455 53.17035996
Bi 3.73218657 12.26609426 55.37915890
Te 1.49150460 10.94467612 56.91991987
Te 3.60156948 11.85394767 59.97591113
Bi 1.54932424 10.66680134 61.93899569
Te 1.70664486 13.22691153 63.86437748
Bi 3.67718655 11.86967243 66.07597455
Te 1.43009674 10.55806397 67.61696066
Te 3.47945863 11.52886583 70.69035255
Bi 1.43288206 10.33256836 72.64879641
Te 1.58597948 12.89160688 74.57696586
Bi 3.56474126 11.53946414 76.78341617
Te 1.31845165 10.23374156 78.32749346
Te 3.82595262 11.66343857 81.37275069
Bi 1.74713001 10.45146833 83.27922840
Te 1.84801186 12.98010317 85.25858774
Bi 3.88933086 11.66424120 87.40659915
Te 1.67962748 10.37813747 89.02457744
Te 6.07797021 12.90241302 91.77233208
Bi 3.88768210 11.62731933 93.43281938
Te 3.82922447 14.06296548 95.57186278
Bi 6.02948874 12.83975143 97.58265204
Te 3.91789347 11.60909235 99.42985583
Te 1.72043859 10.32394053 102.09133165
Sb 1.71968534 12.79561745 103.77502658
Te 3.86223615 11.53967067 105.68292924
Sb 1.71919997 10.29046229 107.59033366
Te 1.71759850 12.76164552 109.27452379
Te 3.85868392 11.50001759 111.99382147
Sb 3.85361224 13.96917038 113.68234652
Te 5.99917237 12.71501028 115.58216025
Sb 3.85007348 11.46236141 117.47866834
Te 3.84519175 13.93162433 119.16714196
Te 1.69607181 12.67406480 121.88582826
Sb 1.69152785 15.14352563 123.57386098
Te 3.83671380 13.88914397 125.47451275
Sb 1.68817454 12.63681250 127.37202787
Te 1.68364981 15.10628414 129.06006019
Te 1.68430373 10.12629549 131.75611063
Sb 1.67981535 12.59578873 133.44409474
Te 3.82496250 11.34138415 135.34483780
Sb 1.67648725 10.08908882 137.24246878
Te 1.67200118 12.55858324 138.93045265
Te 3.81596126 11.29860233 141.65186482
Sb 3.81148134 13.76810047 143.33984130
Te 5.95662239 12.51369211 145.24059785
Sb 3.80815660 11.26140181 147.13824569
Te 3.80367606 13.73089960 148.82622258
Te 1.65402198 12.47303241 151.54452064
Sb 1.64954125 14.94253008 153.23249754
Te 3.79468271 13.68812220 155.13325322
Sb 1.64621610 12.43583162 157.03089986
Te 1.64173553 14.90532947 158.71887752
Te 1.64232704 9.92530455 161.41487317
Sb 1.63784755 12.39480282 163.10285089
Te 3.78298771 11.14039423 165.00360398
Sb 1.63452223 9.88810421 166.90125905
Te 1.63004327 12.35760297 168.58922282
Te 3.77400087 11.09761875 171.31077122
Sb 3.76952192 13.56711789 172.99869910
Te 5.91466218 12.31270804 174.89956023
Sb 3.76617660 11.06041096 176.79701461
Te 3.76170551 13.52991233 178.48533201
Te 1.61228883 12.27218721 181.19975440
Sb 1.60739576 14.74142843 182.88963021
Te 3.75304588 13.48731383 184.78945115
Sb 1.60457270 12.23504439 186.68832684
Te 1.59943566 14.70436074 188.36355094
Te 1.99770934 11.98194237 191.55050364
Sb 1.98788950 14.44854669 193.23149202
Te 4.13901910 13.19754949 195.12779080
Sb 1.98053747 11.93963273 197.00549833
Te 1.97101374 14.40620702 198.69534119
Te 1.90482663 16.83403758 201.40856937
Bi -0.19196483 15.61144756 203.29116057
Te -0.10324010 18.13291419 205.28659999
Bi 1.97959331 16.73952916 1.83359831
Te -0.22841325 15.45500312 3.45656642
Te 2.19497394 16.83284525 6.48171779
Bi 0.14229934 15.64140132 8.44237038
Te 0.28978843 18.19823022 10.37512849
Bi 2.26968698 16.84911383 12.58019794
Te 0.02826112 15.53346963 14.12500947
Te 2.13956203 16.43685107 17.17976334
Bi 0.08598366 15.25187427 19.14290381
Te 0.24311717 17.81242106 21.06848615
Bi 2.21381626 16.45439193 23.28049353
Te -0.03186010 15.13938518 24.82067497
Te 1.84471235 16.39719157 27.89799922
Bi -0.20260458 15.20639235 29.86081004
Te -0.04205900 17.77027954 31.78236889
Bi 1.92488803 16.41048644 33.99671834
Te -0.32427690 15.09921193 35.53494266
Te 1.55754104 16.35487301 38.61168555
Bi -0.49246188 15.16802364 40.57345602
Te -0.33513257 17.73062326 42.49743541
Bi 1.63602321 16.37623058 44.70825794
Te -0.60748673 15.05813497 46.24767521
Te 1.50844743 15.96309697 49.30240766
Bi -0.54688233 14.78160176 51.26530924
Te -0.39241011 17.34123154 53.19265482
Bi 1.58194002 15.98825115 55.40145388
Te -0.65874201 14.66683285 56.94221440
Te 1.45132271 15.57610492 59.99820578
Bi -0.60092255 14.38895854 61.96129041
Te -0.44360172 16.94906872 63.88667222
Bi 1.52693987 15.59182940 66.09826930
Te -0.72014985 14.28022099 67.63925505
Te 1.32921168 15.25102329 70.71264711
Bi -0.71736469 14.05472570 72.67109093
Te -0.56426730 16.61376402 74.59926057
Bi 1.41449455 15.26162128 76.80571083
Te -0.83179516 13.95589853 78.34978806
Te 1.67570605 15.38559577 81.39504526
Bi -0.40311671 14.17362564 83.30152276
Te -0.30223484 16.70226030 85.28088248
Bi 1.73908417 15.38639828 87.42889380
Te -0.47061919 14.10029438 89.04687208
Te 3.92772335 16.62457007 91.79462671
Bi 1.73743569 15.34947647 93.45511401
Te 1.67897786 17.78512265 95.59415733
Bi 3.87924214 16.56190847 97.60494656
Te 1.76764689 15.33124940 99.45215050
Te -0.42980817 14.04609783 102.11362615
Sb -0.43056131 16.51777460 103.79732116
Te 1.71198950 15.26182780 105.70522386
Sb -0.43104678 14.01261953 107.61262841
Te -0.43264819 16.48380271 109.29681842
Te 1.70843732 15.22217469 112.01611603
Sb 1.70336558 17.69132749 113.70464125
Te 3.84892588 16.43716735 115.60445480
Sb 1.69982695 15.18451847 117.50096308
Te 1.69494513 17.65378140 119.18943653
Te -0.45417488 16.39622201 121.90812285
Sb -0.45871886 18.86568269 123.59615555
Te 1.68646715 17.61130108 125.49680742
Sb -0.46207209 16.35896949 127.39432251
Te -0.46659674 18.82844109 129.08235482
Te -0.46594292 13.84845275 131.77840501
Sb -0.47043124 16.31794597 133.46638936
Te 1.67471584 15.06354130 135.36713228
Sb -0.47375947 13.81124582 137.26476336
Te -0.47824539 16.28074028 138.95274728
Te 1.66571475 15.02075951 141.67415945
Sb 1.66123481 17.49025749 143.36213604
Te 3.80637588 16.23584918 145.26289252
Sb 1.65790993 14.98355898 147.16054033
Te 1.65342944 17.45305681 148.84851733
Te -0.49622469 16.19518963 151.56681515
Sb -0.50070536 18.66468733 153.25479228
Te 1.64443596 17.41027929 155.15554785
Sb -0.50403064 16.15798871 157.05319451
Te -0.50851112 18.62748666 158.74117211
Te -0.50791957 13.64746195 161.43716773
Sb -0.51239901 16.11696021 163.12514556
Te 1.63274099 14.86255134 165.02589853
Sb -0.51572426 13.61026143 166.92355354
Te -0.52020334 16.07975998 168.61151741
Te 1.62375406 14.81977619 171.33306560
Sb 1.61927522 17.28927516 173.02099351
Te 3.76441547 16.03486524 174.92185481
Sb 1.61592995 14.78256813 176.81930931
Te 1.61145879 17.25206952 178.50762653
Te -0.53795782 15.99434428 181.22204891
Sb -0.54285081 18.46358531 182.91192479
Te 1.60279927 17.20947106 184.81174598
Sb -0.54567399 15.95720126 186.71062147
Te -0.55081093 18.42651764 188.38584562
Te -0.15253728 15.70409959 191.57279818
Sb -0.16235705 18.17070372 193.25378653
Te 1.98877254 16.91970675 195.15008549
Sb -0.16970924 15.66178994 197.02779282
Te -0.17923277 18.12836425 198.71763581
Te -0.24541975 20.55619463 201.43086401
Bi -2.34221127 19.33360464 203.31345512
Te -2.25348663 21.85507114 205.30889487
Bi -0.17065318 20.46168623 1.85589325
Te -2.37865973 19.17716018 3.47886113
Te 0.04472743 20.55500245 6.50401277
Bi -2.00794715 19.36355846 8.46466530
Te -1.86045824 21.92038727 10.39742354
Bi 0.11944066 20.57127087 12.60249295
Te -2.12198531 19.25562669 14.14730430
Te -0.01068434 20.15900844 17.20205848
Bi -2.06426270 18.97403164 19.16519854
Te -1.90712931 21.53457817 21.09078131
Bi 0.06356984 20.17654908 23.30278861
Te -2.18210657 18.86154211 24.84297000
Te -0.30553402 20.11934882 27.92029420
Bi -2.35285115 18.92854953 29.88310508
Te -2.19230539 21.49243656 31.80466397
Bi -0.22535839 20.13264350 34.01901349
Te -2.47452347 18.82136903 35.55723784
Te -0.59270542 20.07703035 38.63398062
Bi -2.64270844 18.89018089 40.59575081
Te -2.48537902 21.45278067 42.51973061
Bi -0.51422334 20.09838744 44.73055285
Te -2.75773340 18.78029185 46.26997022
Te -0.64179916 19.68525414 49.32470275
Bi -2.69712889 18.50375888 51.28760419
Te -2.54265667 21.06338849 53.21494993
Bi -0.56830652 19.71040801 55.42374894
Te -2.80898855 18.38898975 56.96450933
Te -0.69892398 19.29826212 60.02050077
Bi -2.75116923 18.11111573 61.98358528
Te -2.59384821 20.67122592 63.90896723
Bi -0.62330677 19.31398632 66.12056408
Te -2.87039651 18.00237775 67.66154989
Te -0.82103502 18.97318056 70.73494207
Bi -2.86761150 17.77688298 72.69338570
Te -2.71451377 20.33592113 74.62155543
Bi -0.73575215 18.98377834 76.82800571
Te -2.98204177 17.67805529 78.37208273
Te -0.47454073 19.10775285 81.41734004
Bi -2.55336326 17.89578258 83.32381758
Te -2.45248181 20.42441727 85.30317717
Bi -0.41116249 19.10855550 87.45118839
Te -2.62086571 17.82245154 89.06916687
Te 1.77747678 20.34672695 91.81692130
Bi -0.41281114 19.07163343 93.47740841
Te -0.47126863 21.50727959 95.61645199
Bi 1.72899545 20.28406545 97.62724136
Te -0.38259985 19.05340647 99.47444528
Te -2.58005491 17.76825488 102.13592080
Sb -2.58080781 20.23993160 103.81961586
Te -0.43825711 18.98398482 105.72751855
Sb -2.58129342 17.73477664 107.63492294
Te -2.58289475 20.20595977 109.31911309
Te -0.44180940 18.94433186 112.03841086
Sb -0.44688099 21.41348450 113.72693611
Te 1.69867929 20.15932441 115.62674955
Sb -0.45041965 18.90667553 117.52325767
Te -0.45530139 21.37593847 119.21173133
Te -2.60442155 20.11837891 121.93041764
Sb -2.60896539 22.58783977 123.61845017
Te -0.46377937 21.33345819 125.51910215
Sb -2.61231878 20.08112660 127.41661727
Te -2.61684341 22.55059824 129.10464957
Te -2.61618947 17.57060988 131.80069963
Sb -2.62067777 20.04010316 133.48868385
Te -0.47553076 18.78569853 135.38942693
Sb -2.62400605 17.53340300 137.28705801
Te -2.62849196 20.00289726 138.97504186
Te -0.48453182 18.74291665 141.69645420
Sb -0.48901177 21.21241446 143.38443082
Te 1.65612929 19.95800620 145.28518726
Sb -0.49233670 18.70571606 147.18283515
Te -0.49681710 21.17521385 148.87081202
Te -2.64647125 19.91734674 151.58910981
Sb -2.65095181 22.38684434 153.27708694
Te -0.50581055 21.13243634 155.17784252
Sb -2.65427725 19.88014592 157.07548906
Te -2.65875762 22.34964370 158.76346690
Te -2.65816617 17.36961906 161.45946241
Sb -2.66264560 19.83911727 163.14744024
Te -0.51750564 18.58470844 165.04819319
Sb -2.66597091 17.33241855 166.94584805
Te -2.67044990 19.80191714 168.63381198
Te -0.52649263 18.54193339 171.35536032
Sb -0.53097135 21.01143222 173.04328835
Te 1.61416895 19.75702234 174.94414943
Sb -0.53431665 18.50472518 176.84160365
Te -0.53878776 20.97422643 178.52992135
Te -2.68820446 19.71650152 181.24434351
Sb -2.69309741 22.18574243 182.93421958
Te -0.54744739 20.93162787 184.83404055
Sb -2.69592045 19.67935821 186.73291626
Te -2.70105746 22.14867462 188.40814044
Te -2.30278403 19.42625704 191.59509276
Sb -2.31260373 21.89286097 193.27608137
Te -0.16147412 20.64186373 195.17238016
Sb -2.31995585 19.38394699 197.05008768
Te -2.32947920 21.85052129 198.73993072
Te -2.39566631 24.27835167 201.45315900
Bi -4.49245773 23.05576164 203.33575008
Te -4.40373307 25.57722804 205.33118987
Bi -2.32089968 24.18384314 1.87818825
Te -4.52890622 22.89931720 3.50115615
Te -2.10551886 24.27715954 6.52630774
Bi -4.15819351 23.08571560 8.48696038
Te -4.01070445 25.64254446 10.41971857
Bi -2.03080577 24.29342789 12.62478800
Te -4.27223165 22.97778383 14.16959944
Te -2.16093077 23.88116555 17.22435347
Bi -4.21450913 22.69618870 19.18749374
Te -4.05737571 25.25673528 21.11307648
Bi -2.08667660 23.89870605 23.32508394
Te -4.33235302 22.58369919 24.86526501
Te -2.45578055 23.84150601 27.94258939
Bi -4.50309749 22.65070674 29.90540025
Te -4.34255185 25.21459376 31.82695925
Bi -2.37560477 23.85480051 34.04130856
Te -4.62476977 22.54352603 35.57953294
Te -2.74295199 23.79918753 38.65627576
Bi -4.79295482 22.61233810 40.61804610
Te -4.63562548 25.17493762 42.54202588
Bi -2.66446972 23.82054453 44.75284808
Te -4.90797967 22.50244877 46.29226537
Te -2.79204570 23.40741123 49.34699807
Bi -4.84737549 22.22591589 51.30989944
Te -4.69290326 24.78554567 53.23724518
Bi -2.71855302 23.43256497 55.44604409
Te -4.95923512 22.11114658 56.98680447
Te -2.84917056 23.02041948 60.04279581
Bi -4.90141580 21.83327276 62.00588023
Te -4.74409467 24.39338294 63.93126232
Bi -2.77355328 23.03614329 66.14285930
Te -5.02064328 21.72453466 67.68384477
Te -2.97128166 22.69533774 70.75723683
Bi -5.01785809 21.49903992 72.71568046
Te -4.86476034 24.05807820 74.64385024
Bi -2.88599862 22.70593546 76.85030058
Te -5.13228828 21.40021234 78.39437754
Te -2.62478713 22.82990995 81.43963482
Bi -4.70361002 21.61793980 83.34611219
Te -4.60272824 24.14657437 85.32547198
Bi -2.56140895 22.83071249 87.47348327
Te -4.77111234 21.54460845 89.09146167
Te -0.37276962 24.06888409 91.83921609
Bi -2.56305766 22.79379033 93.49970344
Te -2.62151533 25.22943657 95.63874672
Bi -0.42125105 24.00622241 97.64953601
Te -2.53284631 22.77556340 99.49673992
Te -4.73030139 21.49041196 102.15821548
Sb -4.73105452 23.96208862 103.84191065
Te -2.58850368 22.70614186 105.74981320
Sb -4.73153993 21.45693382 107.65721771
Te -4.73314124 23.92811675 109.34140784
Te -2.59205587 22.66648900 112.06070542
Sb -2.59712747 25.13564157 113.74923082
Te -0.45156734 23.88148143 115.64904426
Sb -2.60066614 22.62883263 117.54555248
Te -2.60554789 25.09809552 119.23402605
Te -4.75466813 23.84053602 121.95271231
Sb -4.75921193 26.30999680 123.64074503
Te -2.61402600 25.05561521 125.54139685
Sb -4.76256525 23.80328362 127.43891186
Te -4.76708994 26.27275519 129.12694419
Te -4.76643619 21.29276711 131.82299422
Sb -4.77092435 23.76226011 133.51097859
Te -2.62577737 22.50785540 135.41172155
Sb -4.77425262 21.25556000 137.30935276
Te -4.77873856 23.72505436 138.99733667
Te -2.63477840 22.46507379 141.71874893
Sb -2.63925837 24.93457163 143.40672552
Te -0.49411722 23.68016334 145.30748195
Sb -2.64258325 22.42787313 147.20512969
Te -2.64706365 24.89737087 148.89310664
Te -4.79671775 23.63950383 151.61140451
Sb -4.80119853 26.10900141 153.29938161
Te -2.65605705 24.85459340 155.20013723
Sb -4.80452378 23.60230308 157.09778368
Te -4.80900421 26.07180074 158.78576152
Te -4.80841275 21.09177610 161.48175689
Sb -4.81289217 23.56127435 163.16973496
Te -2.66775213 22.30686551 165.07048788
Sb -4.81621747 21.05457564 166.96814287
Te -4.82069657 23.52407422 168.65610681
Te -2.67673918 22.26409055 171.37765501
Sb -2.68121779 24.73358917 173.06558314
Te -0.53607755 23.47917932 174.96644441
Sb -2.68456324 22.22688220 176.86389850
Te -2.68903434 24.69638358 178.55221621
Te -4.83845095 23.43865850 181.26663842
Sb -4.84334397 25.90789940 182.95651446
Te -2.69769384 24.65378493 184.85633556
Sb -4.84616704 23.40151527 186.75521113
Te -4.85130407 25.87083164 188.43043532
Te -4.45303047 23.14841420 191.61738762
Sb -4.46285018 25.61501806 193.29837628
Te -2.31172056 24.36402097 195.19467496
Sb -4.47020227 23.10610401 197.07238237
Te -4.47972568 25.57267819 198.76222564
Te -4.54591283 28.00050865 201.47545394
Bi -6.64270419 26.77791871 203.35804510
Te -6.55397945 29.29938510 205.35348478
Bi -4.47114602 27.90600017 1.90048322
Te -6.67915277 26.62147421 3.52345121
Te -4.25576536 27.99931656 6.54860286
Bi -6.30843994 26.80787275 8.50925548
Te -6.16095096 29.36470148 10.44201379
Bi -4.18105231 28.01558495 12.64708330
Te -6.42247820 26.69994056 14.19189458
Te -4.31117716 27.60332245 17.24664870
Bi -6.36475560 26.41834584 19.20978902
Te -6.20762205 28.97889234 21.13537165
Bi -4.23692296 27.62086331 23.34737903
Te -6.48259939 26.30585630 24.88756029
Te -4.60602697 27.56366312 27.96488465
Bi -6.65334390 26.37286389 29.92769541
Te -6.49279823 28.93675088 31.84925466
Bi -4.52585115 27.57695754 34.06360386
Te -6.77501626 26.26568303 35.60182835
Te -4.89319835 27.52134467 38.67857109
Bi -6.94320126 26.33449535 40.64034130
Te -6.78587188 28.89709469 42.56432109
Bi -4.81471608 27.54270154 44.77514327
Te -7.05822604 26.22460590 46.31456058
Te -4.94229241 27.12956830 49.36929341
Bi -6.99762209 25.94807303 51.33219490
Te -6.84314978 28.50770268 53.25954051
Bi -4.86879960 27.15472200 55.46833941
Te -7.10948171 25.83330353 57.00909970
Te -4.99941703 26.74257644 60.06509095
Bi -7.05166226 25.55542980 62.02817549
Te -6.89434119 28.11553992 63.95355759
Bi -4.92379976 26.75830034 66.16515455
Te -7.17088950 25.44669155 67.70613993
Te -5.12152809 26.41749499 70.77953177
Bi -7.16810469 25.22119708 72.73797540
Te -7.01500691 27.78023515 74.66614539
Bi -5.03624510 26.42809256 76.87259537
Te -7.28253473 25.12236945 78.41667241
Te -4.77503377 26.55206691 81.46192973
Bi -6.85385647 25.34009671 83.36840718
Te -6.75297467 27.86873134 85.34776690
Bi -4.71165565 26.55286931 87.49577830
Te -6.92135896 25.26676544 89.11375649
Te -2.52301627 27.79104101 91.86151086
Bi -4.71330418 26.51594753 93.52199817
Te -4.77176183 28.95159372 95.66104148
Bi -2.57149755 27.72837937 97.67183073
Te -4.68309283 26.49772038 99.51903464
Te -6.88054797 25.21256899 102.18051021
Sb -6.88130106 27.68424568 103.86420533
Te -4.73875028 26.42829904 105.77210785
Sb -6.88178649 25.17909078 107.67951249
Te -6.88338782 27.65027371 109.36370265
Te -4.74230241 26.38864594 112.08300016
Sb -4.74737404 28.85779859 113.77152545
Te -2.60181380 27.60363856 115.67133897
Sb -4.75091275 26.35098970 117.56784716
Te -4.75579441 28.82025256 119.25632081
Te -6.90491463 27.56269314 121.97500704
Sb -6.90945854 30.03215391 123.66303974
Te -4.76427257 28.77777230 125.56369161
Sb -6.91281175 27.52544072 127.46120665
Te -6.91733648 29.99491237 129.14923898
Te -6.91668269 25.01492405 131.84528896
Sb -6.92117097 27.48441715 133.53327335
Te -4.77602388 26.23001255 135.43401628
Sb -6.92449917 24.97771714 137.33164743
Te -6.92898506 27.44721136 139.01963134
Te -4.78502499 26.18723065 141.74104357
Sb -4.78950493 28.65672877 143.42902012
Te -2.64436379 27.40232039 145.32977666
Sb -4.79282978 26.15003022 147.22742447
Te -4.79731023 28.61952799 148.91540142
Te -6.94696445 27.36166100 151.63369913
Sb -6.95144495 29.83115849 153.32167624
Te -4.80630365 28.57675046 155.22243183
Sb -6.95477030 27.32446001 157.12007840
Te -6.95925075 29.79395765 158.80805635
Te -6.95865924 24.81393324 161.50405160
Sb -6.96313870 27.28343147 163.19202965
Te -4.81799871 26.02902256 165.09278251
Sb -6.96646402 24.77673267 166.99043756
Te -6.97094306 27.24623117 168.67840153
Te -4.82698559 25.98624746 171.39994967
Sb -4.83146437 28.45574618 173.08787792
Te -2.68632410 27.20133637 174.98873909
Sb -4.83480977 25.94903937 176.88619327
Te -4.83928089 28.41854071 178.57451095
Te -6.98869751 27.16081553 181.28893338
Sb -6.99359054 29.63005652 182.97880916
Te -4.84794055 28.37594197 184.87863031
Sb -6.99641358 27.12367224 186.77750607
Te -7.00155064 29.59298855 188.45273017
Te -6.60327699 26.87057109 191.63968258
Sb -6.61309691 29.33717496 193.32067122
Te -4.46196711 28.08617803 195.21696983
Sb -6.62044878 26.82826114 197.09467738
Te -6.62997223 29.29483540 198.78452059
Te -6.69615935 31.72266570 201.49774887
Bi -8.79295086 30.50007564 203.38033995
Te -8.70422602 33.02154203 205.37577982
Bi -6.62139254 31.62815707 1.92277828
Te -8.82939926 30.34363091 3.54574611
Te -6.40601186 31.72147350 6.57089777
Bi -8.45868650 30.53002959 8.53155052
Te -8.31119726 33.08685864 10.46430864
Bi -6.33129877 31.73774201 12.66937827
Te -8.57272467 30.42209785 14.21418969
Te -6.46142362 31.32547926 17.26894379
Bi -8.51500217 30.14050292 19.23208418
Te -8.35786852 32.70104959 21.15766683
Bi -6.38716934 31.34302032 23.36967428
Te -8.63284578 30.02801340 24.90985538
Te -6.75627340 31.28582000 27.98717989
Bi -8.80359036 30.09502084 29.94999073
Te -8.64304467 32.65890786 31.87154983
Bi -6.67609769 31.29911475 34.08589927
Te -8.92526264 29.98784024 35.62412356
Te -7.04344476 31.24350170 38.70086631
Bi -9.09344768 30.05665234 40.66263664
Te -8.93611827 32.61925176 42.58661625
Bi -6.96496256 31.26485869 44.79743858
Te -9.20847244 29.94676282 46.33685581
Te -7.09253889 30.85172519 49.39158862
Bi -9.14786858 29.67023001 51.35449019
Te -8.99339611 32.22985982 53.28183581
Bi -7.01904610 30.87687908 55.49063479
Te -9.25972830 29.55546037 57.03139496
Te -7.14966352 30.46473315 60.08738609
Bi -9.20190879 29.27758682 62.05047061
Te -9.04458773 31.83769686 63.97585271
Bi -7.07404624 30.48045732 66.18744959
Te -9.32113604 29.16884857 67.72843513
Te -7.27177454 30.13965195 70.80182675
Bi -9.31835097 28.94335419 72.76027036
Te -9.16525327 31.50239223 74.68844038
Bi -7.18649167 30.15024945 76.89489036
Te -9.43278128 28.84452636 78.43896739
Te -6.92528042 30.27422387 81.48422457
Bi -9.00410312 29.06225359 83.39070209
Te -8.90322121 31.59088843 85.37006166
Bi -6.86190208 30.27502632 87.51807302
Te -9.07160535 28.98892247 89.13605139
Te -4.67326285 31.51319801 91.88380566
Bi -6.86355081 30.23810444 93.54429301
Te -6.92200830 32.67375077 95.68333620
Bi -4.72174413 31.45053654 97.69412549
Te -6.83333950 30.21987754 99.54132933
Te -9.03079462 28.93472600 102.20280493
Sb -9.03154754 31.40640271 103.88650001
Te -6.88899675 30.15045593 105.79440267
Sb -9.03203295 28.90124774 107.70180719
Te -9.03363420 31.37243070 109.38599730
Te -6.89254902 30.11080284 112.10529489
Sb -6.89762061 32.57995571 113.79382019
Te -4.75206042 31.32579556 115.69363361
Sb -6.90115917 30.07314672 117.59014181
Te -6.90604104 32.54240969 119.27861539
Te -9.05516124 31.28485021 121.99730181
Sb -9.05970503 33.75431093 123.68533451
Te -6.91451896 32.49992936 125.58598626
Sb -9.06305834 31.24759774 127.48350130
Te -9.06758304 33.71706929 129.17153372
Te -9.06692916 28.73708105 131.86758369
Sb -9.07141752 31.20657422 133.55556810
Te -6.92627040 29.95216941 135.45631102
Sb -9.07474569 28.69987416 137.35394214
Te -9.07923163 31.16936837 139.04192606
Te -6.93527153 29.90938783 141.76333835
Sb -6.93975146 32.37888581 143.45131491
Te -4.79461042 31.12447751 145.35207140
Sb -6.94307631 29.87218729 147.24971923
Te -6.94755678 32.34168513 148.93769616
Te -9.09721084 31.08381800 151.65599389
Sb -9.10169145 33.55331577 153.34397104
Te -6.95655017 32.29890756 155.24472653
Sb -9.10501686 31.04661723 157.14237316
Te -9.10949726 33.51611484 158.83035099
Te -9.10890584 28.53609020 161.52634627
Sb -9.11338530 31.00558836 163.21432448
Te -6.96824526 29.75117974 165.11507730
Sb -9.11671063 28.49888966 167.01273226
Te -9.12118950 30.96838816 168.70069622
Te -6.97723219 29.70840442 171.42224447
Sb -6.98171091 32.17790323 173.11017254
Te -4.83657066 30.92349343 175.01103388
Sb -6.98505632 29.67119634 176.90848821
Te -6.98952746 32.14069771 178.59680585
Te -9.13894401 30.88297255 181.31122827
Sb -9.14383695 33.35221355 183.00110425
Te -6.99818694 32.09809891 184.90092541
Sb -9.14666018 30.84582933 186.79980092
Te -9.15179710 33.31514576 188.47502501
Te -8.75352349 30.59272811 191.66197747
Sb -8.76334341 33.05933201 193.34296608
Te -6.61221356 31.80833502 195.23926479
Sb -8.77069531 30.55041813 197.11697231
Te -8.78021881 33.01699230 198.80681554
Te -8.84640598 35.44482257 201.52004383
Bi -10.94319739 34.22223268 203.40263523
Te -10.85447251 36.74369933 205.39807459
Bi -8.77163922 35.35031409 1.94507350
Te -10.97964575 34.06578805 3.56804108
Te -8.55625839 35.44363039 6.59319280
Bi -10.60893308 34.25218677 8.55384549
Te -10.46144390 36.80901572 10.48660343
Bi -8.48154534 35.45989935 12.69167309
Te -10.72297131 34.14425510 14.23648458
Te -8.61167005 35.04763612 17.29123868
Bi -10.66524862 33.86265979 19.25437930
Te -10.50811501 36.42320658 21.17996171
Bi -8.53741602 35.06517747 23.39196930
Te -10.78309243 33.75017044 24.93215051
Te -8.90651985 35.00797678 28.00947493
Bi -10.95383678 33.81717786 29.97228610
Te -10.79329130 36.38106488 31.89384471
Bi -8.82634431 35.02127226 34.10819441
Te -11.07550920 33.70999743 35.64641866
Te -9.19369108 34.96565823 38.72316126
Bi -11.24369411 33.77880937 40.68493175
Te -11.08636474 36.34140892 42.60891120
Bi -9.11520887 34.98701587 44.81973374
Te -11.35871913 33.66891988 46.35915105
Te -9.24278548 34.57388217 49.41388370
Bi -11.29811514 33.39238694 51.37678543
Te -11.14364272 35.95201667 53.30413087
Bi -9.16929259 34.59903628 55.51293002
Te -11.40997454 33.27761764 57.05369015
Te -9.29990991 34.18689030 60.10968111
Bi -11.35215522 32.99974390 62.07276572
Te -11.19483425 35.55985410 63.99814755
Bi -9.22429274 34.20261450 66.20974451
Te -11.47138253 32.89100577 67.75073014
Te -9.42202112 33.86180929 70.82412182
Bi -11.46859748 32.66551127 72.78256544
Te -11.31549986 35.22454930 74.71073542
Bi -9.33673807 33.87240655 76.91718530
Te -11.58302757 32.56668349 78.46126259
Te -9.07552688 33.99638093 81.50651945
Bi -11.15434963 32.78441072 83.41299680
Te -11.05346788 35.31304537 85.39235647
Bi -9.01214857 33.99718339 87.54036778
Te -11.22185192 32.71107948 89.15834621
Te -6.82350948 35.23535495 91.90610032
Bi -9.01379725 33.96026165 93.56658768
Te -9.07225491 36.39590783 95.70563094
Bi -6.87199070 35.17269357 97.71642027
Te -8.98358603 33.94203449 99.56362390
Te -11.18104113 32.65688290 102.22509957
Sb -11.18179406 35.12855985 103.90879454
Te -9.03924346 33.87261299 105.81669725
Sb -11.18227950 32.62340470 107.72410186
Te -11.18388097 35.09458789 109.40829185
Te -9.04279561 33.83295994 112.12758951
Sb -9.04786730 36.30211274 113.81611457
Te -6.90230694 35.04795266 115.71592840
Sb -9.05140594 33.79530382 117.61243652
Te -9.05628769 36.26456675 119.30091001
Te -11.20540778 35.00700718 122.01959644
Sb -11.20995162 37.47646793 123.70762917
Te -9.06476554 36.22208641 125.60828105
Sb -11.21330497 34.96975488 127.50579601
Te -11.21782953 37.43922649 129.19382832
Te -11.21717573 32.45923813 131.88987840
Sb -11.22166404 34.92873139 133.57786275
Te -9.07651705 33.67432658 135.47860571
Sb -11.22499225 32.42203121 137.37623692
Te -11.22947825 34.89152547 139.06422070
Te -9.08551809 33.63154489 141.78563302
Sb -9.08999811 36.10104273 143.47360959
Te -6.94485694 34.84663453 145.37436610
Sb -9.09332292 33.59434442 147.27201388
Te -9.09780337 36.06384220 148.95999085
Te -11.24745749 34.80597518 151.67828856
Sb -11.25193814 37.27547274 153.36626572
Te -9.10679682 36.02106472 155.26702132
Sb -11.25526340 34.76877425 157.16466783
Te -11.25974394 37.23827202 158.85264556
Te -11.25915236 32.25824718 161.54864100
Sb -11.26363190 34.72774544 163.23661911
Te -9.11849177 33.47333662 165.13737191
Sb -11.26695713 32.22104672 167.03502700
Te -11.27143603 34.69054525 168.72299093
Te -9.12747875 33.43056140 171.44453916
Sb -9.13195744 35.90006023 173.13246716
Te -6.98681736 34.64565029 175.03332851
Sb -9.13530290 33.39335340 176.93078301
Te -9.13977394 35.86285480 178.61910033
Te -11.28919078 34.60512961 181.33352318
Sb -11.29408367 37.07437073 183.02339897
Te -9.14843374 35.82025618 184.92322019
Sb -11.29690674 34.56798654 186.82209573
Te -11.30204380 37.03730293 188.49731972
Te -10.90376989 34.31488505 191.68427238
Sb -10.91358989 36.78148891 193.36526087
Te -8.76246012 35.53049207 195.26155966
Sb -10.92094187 34.27257512 197.13926723
Te -10.93046538 36.73914933 198.82911034
Te -10.99665257 39.16697944 201.54233853
Bi -13.09344395 37.94438976 203.42492998
Te -13.00471922 40.46585661 205.42036923
Bi -10.92188580 39.07247132 1.96736828
Te -13.12989252 37.78794532 3.59033568
Te -10.70650496 39.16578725 6.61548746
Bi -12.75917964 37.97434382 8.57614024
Te -12.61169089 40.53117294 10.50889791
Bi -10.63179209 39.18205656 12.71396776
Te -12.87321802 37.86641260 14.25877922
Te -10.76191682 38.76979288 17.31353351
Bi -12.81549532 37.58481674 19.27667426
Te -12.65836187 40.14536372 21.20225643
Bi -10.68766270 38.78733459 23.41426397
Te -12.93333899 37.47232763 24.95444537
Te -11.05676641 38.73013363 28.03176978
Bi -13.10408337 37.53933483 29.99458101
Te -12.94353799 40.10322230 31.91613955
Bi -10.97659098 38.74342944 34.13048895
Te -13.22575582 37.43215462 35.66871349
Te -11.34393761 38.68781530 38.74545623
Bi -13.39394053 37.50096618 40.70722662
Te -13.23661129 40.06356599 42.63120588
Bi -11.26545551 38.70917316 44.84202873
Te -13.50896570 37.39107715 46.38144589
Te -11.39303182 38.29603902 49.43617850
Bi -13.44836152 37.11454409 51.39908035
Te -13.29388945 39.67417413 53.32642562
Bi -11.31953926 38.32119348 55.53522456
Te -13.56022109 36.99977489 57.07598502
Te -11.45015632 37.90904708 60.13197578
Bi -13.50240173 36.72190113 62.09506054
Te -13.34508066 39.28201124 64.02044237
Bi -11.37453930 37.92477179 66.23203936
Te -13.62162916 36.61316314 67.77302502
Te -11.57226751 37.58396602 70.84641658
Bi -13.61884392 36.38766833 72.80486045
Te -13.46574621 38.94670657 74.73303010
Bi -11.48698444 37.59456383 76.93948019
Te -13.73327417 36.28884087 78.48355730
Te -11.22577334 37.71853790 81.52881410
Bi -13.30459632 36.50656788 83.43529155
Te -13.20371431 39.03520255 85.41465110
Bi -11.16239518 37.71934056 87.56266244
Te -13.37209840 36.43323678 89.18064083
Te -8.97375605 38.95751219 91.92839486
Bi -11.16404401 37.68241851 93.58888251
Te -11.22250149 40.11806502 95.72792552
Bi -9.02223727 38.89485078 97.73871485
Te -11.13383262 37.66419168 99.58591854
Te -13.33128764 36.37903998 102.24739422
Sb -13.33204067 38.85071692 103.93108907
Te -11.18949005 37.59477013 105.83899176
Sb -13.33252612 36.34556186 107.74639637
Te -13.33412767 38.81674509 109.43058638
Te -11.19304223 37.55511710 112.14988407
Sb -11.19811397 40.02427004 113.83840915
Te -9.05255360 38.77010969 115.73822280
Sb -11.20165248 37.51746093 117.63473112
Te -11.20653430 39.98672389 119.32320455
Te -13.35565436 38.72916429 122.04189098
Sb -13.36019826 41.19862512 123.72992367
Te -11.21501240 39.94424349 125.63057548
Sb -13.36355159 38.69191188 127.52809055
Te -13.36807626 41.16138373 129.21612295
Te -13.36742245 36.18139527 131.91217305
Sb -13.37191078 38.65088843 133.60015745
Te -11.22676360 37.39648371 135.50090046
Sb -13.37523892 36.14418826 137.39853142
Te -13.37972487 38.61368258 139.08651549
Te -11.23576455 37.35370183 141.80792759
Sb -11.24024492 39.82319987 143.49590414
Te -9.09510360 38.56879171 145.39666062
Sb -11.24356947 37.31650157 147.29430832
Te -11.24805006 39.78599934 148.98228523
Te -13.39770404 38.52813221 151.70058321
Sb -13.40218485 40.99763002 153.38856032
Te -11.25704346 39.74322194 155.28931582
Sb -13.40551008 38.49093142 157.18696247
Te -13.40999061 40.96042923 158.87494009
Te -13.40939887 35.98040424 161.57093568
Sb -13.41387844 38.44990250 163.25891366
Te -11.26873838 37.19549376 165.15966668
Sb -13.41720381 35.94320383 167.05732163
Te -13.42168264 38.41270235 168.74528553
Te -11.27772523 37.15271843 171.46683378
Sb -11.28220404 39.62221739 173.15476188
Te -9.13706379 38.36780748 175.05562309
Sb -11.28554941 37.11551050 176.95307770
Te -11.29002052 39.58501187 178.64139494
Te -13.43943725 38.32728663 181.35581792
Sb -13.44433040 40.79652798 183.04569372
Te -11.29868031 39.54241332 184.94551486
Sb -13.44715350 38.29014366 186.84439043
Te -13.45229075 40.75946023 188.51961437
Te -13.05401647 38.03704193 191.70656711
Sb -13.06383644 40.50364583 193.38755563
Te -10.91270682 39.25264900 195.28385445
Sb -13.07118854 37.99473210 197.16156201
Te -13.08071208 40.46130642 198.85140500
Te -13.14689932 42.88913645 201.56463289
Bi -15.24369072 41.66654670 203.44722446
Te -15.15496604 44.18801360 205.44266338
Bi -13.07213254 42.79462872 1.98966269
Te -15.28013928 41.51010274 3.61263021
Te -12.85675153 42.88794436 6.63778172
Bi -14.90942638 41.69650092 8.59843457
Te -14.76193773 44.25333010 10.53119222
Bi -12.78203903 42.90421391 12.73626209
Te -15.02346486 41.58856988 14.28107369
Te -12.91216361 42.49194988 17.33582786
Bi -14.96574190 41.30697379 19.29896867
Te -14.80860891 43.86752079 21.22455067
Bi -12.83790949 42.50949198 23.43655827
Te -15.08358571 41.19448506 24.97673997
Te -13.20701317 42.45229032 28.05406421
Bi -15.25433012 41.26149183 30.01687562
Te -15.09378499 43.82537922 31.93843380
Bi -13.12683764 42.46558695 34.15278341
Te -15.37600277 41.15431199 35.69100789
Te -13.49418424 42.40997193 38.76775077
Bi -15.54418717 41.22312315 40.72952137
Te -15.38685807 43.78572334 42.65350034
Bi -13.41570237 42.43133048 44.86432311
Te -15.65921250 41.11323470 46.40374046
Te -13.54327832 42.01819603 49.45847304
Bi -15.59860804 40.83670111 51.42137477
Te -15.44413633 43.39633112 53.34871991
Bi -13.46978598 42.04335108 55.55751911
Te -15.71046773 40.72193226 57.09827969
Te -13.60040299 41.63120420 60.15427042
Bi -15.65264829 40.44405800 62.11735531
Te -15.49532756 43.00416835 64.04273684
Bi -13.52478592 41.64692917 66.25433391
Te -15.77187552 40.33532040 67.79531962
Te -13.72251397 41.30612307 70.86871132
Bi -15.76909046 40.10982560 72.82715516
Te -15.61599310 42.66886387 74.75532469
Bi -13.63723089 41.31672107 76.96177484
Te -15.88352060 40.01099811 78.50585200
Te -13.37602005 41.44069529 81.55110880
Bi -15.45484276 40.22872499 83.45758613
Te -15.35396114 42.75735976 85.43694567
Bi -13.31264190 41.44149776 87.58495695
Te -15.52234498 40.15539384 89.20293550
Te -11.12400272 42.67966941 91.95068931
Bi -13.31429063 41.40457585 93.61117706
Te -13.37274813 43.84022236 95.75021998
Bi -11.17248404 42.61700798 97.76100923
Te -13.28407940 41.38634901 99.60821288
Te -15.48153429 40.10119730 102.26968878
Sb -15.48228739 42.57287422 103.95338359
Te -13.33973679 41.31692734 105.86128634
Sb -15.48277275 40.06771905 107.76869084
Te -15.48437440 42.53890246 109.45288078
Te -13.34328895 41.27727423 112.17217871
Sb -13.34836062 43.74642725 113.86070361
Te -11.20280035 42.49226698 115.76051748
Sb -13.35189938 41.23961811 117.65702549
Te -13.35678111 43.70888126 119.34549890
Te -15.50590114 42.45132148 122.06418560
Sb -15.51044502 44.92078237 123.75221813
Te -13.36525903 43.66640076 125.65286993
Sb -15.51379839 42.41406916 127.55038509
Te -15.51832312 44.88354096 129.23841717
Te -15.51766900 39.90355242 131.93446780
Sb -15.52215736 42.37304570 133.62245203
Te -13.37701041 41.11864081 135.52319504
Sb -15.52548552 39.86634527 137.42082612
Te -15.52997171 42.33583996 139.10880996
Te -13.38601131 41.07585890 141.83022201
Sb -13.39049159 43.54535711 143.51819851
Te -11.24535038 42.29094886 145.41895511
Sb -13.39381622 41.03865878 147.31660291
Te -13.39829686 43.50815661 149.00457953
Te -15.54795080 42.25028937 151.72287780
Sb -15.55243163 44.71978724 153.41085451
Te -13.40728996 43.46537920 155.31161024
Sb -15.55575669 42.21308859 157.20925674
Te -15.56023724 44.68258643 158.89723437
Te -15.55964545 39.70256144 161.59323046
Sb -15.56412514 42.17205971 163.28120826
Te -13.41898498 40.91765105 165.18196125
Sb -15.56745035 39.66536097 167.07961625
Te -15.57192945 42.13485972 168.76757999
Te -13.42797188 40.87487547 171.48912835
Sb -13.43245080 43.34437437 173.17705645
Te -11.28731047 42.08996457 175.07791775
Sb -13.43579612 40.83766761 176.97537197
Te -13.44026739 43.30716923 178.66368922
Te -15.58968389 42.04944386 181.37811248
Sb -15.59457708 44.51868517 183.06798806
Te -13.44892704 43.26457065 184.96780933
Sb -15.59740025 42.01230103 186.86668489
Te -15.60253750 44.48161761 188.54190860
Te -15.20426326 41.75919894 191.72886171
Sb -15.21408304 44.22580304 193.40985021
Te -13.06295344 42.97480590 195.30614901
Sb -15.22143509 41.71688926 197.18385662
Te -15.23095884 44.18346376 198.87369934
Te -15.29714616 46.61129370 201.58692729
Bi -17.39393734 45.38870411 203.46951892
Te -17.30521286 47.91017115 205.46495764
Bi -15.22237965 46.51678587 2.01195674
Te -17.43038619 45.23226004 3.63492437
Te -15.00699870 46.61010135 6.66007584
Bi -17.05967329 45.41865814 8.62072893
Te -16.91218513 47.97548754 10.55348623
Bi -14.93228617 46.62637140 12.75855598
Te -17.17371181 45.31072738 14.30336778
Te -15.06241022 46.21410674 17.35812191
Bi -17.11598876 45.02913093 19.32126264
Te -16.95885556 47.58967805 21.24684457
Bi -14.98815641 46.23164927 23.45885236
Te -17.23383280 44.91664247 24.99903403
Te -15.35725982 46.17444731 28.07635833
Bi -17.40457692 44.98364907 30.03916959
Te -17.24403191 47.54753654 31.96072750
Bi -15.27708476 46.18774418 34.17507724
Te -17.52624965 44.87646955 35.71330198
Te -15.64443091 46.13212885 38.79004476
Bi -17.69443386 44.94528025 40.75181570
Te -17.53710498 47.50788061 42.67579427
Bi -15.56594909 46.15348797 44.88661710
Te -17.80945946 44.83539210 46.42603440
Te -15.69352494 45.74035295 49.48076707
Bi -17.74885482 44.55885826 51.44366893
Te -17.59438325 47.11848854 53.37101385
Bi -15.62003284 45.76550857 55.57981309
Te -17.86071465 44.44409003 57.12057387
Te -15.75064964 45.35336111 60.17656483
Bi -17.80289495 44.16621526 62.13964970
Te -17.64557454 46.72632553 64.06503096
Bi -15.67503253 45.36908676 66.27662792
Te -17.92212233 44.05747827 67.81761405
Te -15.87276028 45.02827997 70.89100561
Bi -17.91933688 43.83198264 72.84944936
Te -17.76623976 46.39102107 74.77761883
Bi -15.78747755 45.03887857 76.98406903
Te -18.03376717 43.73315586 78.52814638
Te -15.52626663 45.16285223 81.57340304
Bi -17.60508952 43.95088202 83.47988045
Te -17.50420789 46.47951690 85.45923977
Bi -15.46288871 45.16365516 87.60725131
Te -17.67259178 43.87755122 89.22522979
Te -13.27424960 46.40182666 91.97298368
Bi -15.46453746 45.12673322 93.63347102
Te -15.52299509 47.56237955 95.77251421
Bi -13.32273076 46.33916553 97.78330374
Te -15.43432621 45.10850622 99.63050731
Te -17.63178103 43.82335451 102.29198312
Sb -17.63253414 46.29503150 103.97567787
Te -15.48998360 45.03908471 105.88358072
Sb -17.63301955 43.78987647 107.79098532
Te -17.63462136 46.26105994 109.47517510
Te -15.49353574 44.99943153 112.19447299
Sb -15.49860758 47.46858461 113.88299793
Te -13.35304722 46.21442427 115.78281164
Sb -15.50214617 44.96177551 117.67931992
Te -15.50702812 47.43103870 119.36779304
Te -17.65614788 46.17347888 122.08647999
Sb -17.66069190 48.64293968 123.77451243
Te -15.51550581 47.38855820 125.67516412
Sb -17.66404521 46.13622647 127.57267939
Te -17.66857003 48.60569849 129.26071136
Te -17.66791575 43.62570963 131.95676242
Sb -17.67240424 46.09520288 133.64474655
Te -15.52725715 44.84079823 135.54548959
Sb -17.67573232 43.58850253 137.44312059
Te -17.68021866 46.05799726 139.13110431
Te -15.53625810 44.79801620 141.85251649
Sb -15.54073851 47.26751447 143.54049285
Te -13.39559722 46.01310619 145.44124938
Sb -15.54406299 44.76081582 147.33889739
Te -15.54854384 47.23031411 149.02687379
Te -17.69819756 45.97244673 151.74517219
Sb -17.70267838 48.44194453 153.43314895
Te -15.55753680 47.18753642 155.33390452
Sb -17.70600337 45.93524588 157.23155114
Te -17.71048413 48.40474379 158.91952870
Te -17.70989230 43.42471867 161.61552496
Sb -17.71437205 45.89421695 163.30350268
Te -15.56923177 44.63980830 165.20425564
Sb -17.71769714 43.38751815 167.10191068
Te -17.72217625 45.85701716 168.78987419
Te -15.57821858 44.59703263 171.51142305
Sb -15.58269752 47.06653164 173.19935075
Te -13.43755732 45.81212194 175.10021211
Sb -15.58604289 44.55982492 176.99766649
Te -15.59051410 47.02932655 178.68598355
Te -17.73993070 45.77160112 181.40040681
Sb -17.74482381 48.24084252 183.09028211
Te -15.59917388 46.98672798 184.99010345
Sb -17.74764704 45.73445836 186.88897920
Te -17.75278440 48.20377512 188.56420288
Te -17.35450999 45.48135587 191.75115633
Sb -17.36432994 47.94796022 193.43214464
Te -15.21320033 46.69696333 195.32844340
Sb -17.37168192 45.43904642 197.20615100
Te -17.38120572 47.90562100 198.89599355
Te -17.44739317 50.33345123 201.60922120
Bi -19.54418435 49.11086136 203.49181283
Te -19.45545985 51.63232822 205.48725153
Bi -17.37262647 50.23894351 2.03425089
Te -19.58063329 48.95441759 3.65721844
Te -17.15724574 50.33225870 6.68236967
Bi -19.20992043 49.14081535 8.64302248
Te -19.06243217 51.69764467 10.57577980
Bi -17.08253333 50.34852886 12.78084993
Te -19.32395906 49.03288476 14.32566172
Te -17.21265727 49.93626405 17.38041562
Bi -19.26623580 48.75128799 19.34355644
Te -19.10910283 51.31183549 21.26913805
Bi -17.13840361 49.95380669 23.48114590
Te -19.38407960 48.63880010 25.02132761
Te -17.50750669 49.89660456 28.09865188
Bi -19.55482380 48.70580635 30.06146330
Te -19.39427884 51.26969406 31.98302083
Bi -17.42733190 49.90990170 34.19737086
Te -19.67649662 48.59862721 35.73559568
Te -17.79467807 49.85428610 38.81233845
Bi -19.84468084 48.66743741 40.77410928
Te -19.68735233 51.23003786 42.69808767
Bi -17.71619617 49.87564558 44.90891071
Te -19.95970627 48.55754982 46.44832832
Te -17.84377190 49.46251023 49.50306101
Bi -19.89910167 48.28101548 51.46596279
Te -19.74463021 50.84064599 53.39330746
Bi -17.77028004 49.48766600 55.60210675
Te -20.01096134 48.16624758 57.14286768
Te -17.90089640 49.07551839 60.19885873
Bi -19.95314180 47.88837257 62.16194359
Te -19.79582167 50.44848307 64.08732474
Bi -17.82527957 49.09124426 66.29892161
Te -20.07236910 47.77963580 67.83990785
Te -18.02300706 48.75043732 70.91329963
Bi -20.06958359 47.55413988 72.87174352
Te -19.91648667 50.11317843 74.79991272
Bi -17.93772460 48.76103584 77.00636318
Te -20.18401425 47.45531310 78.55044038
Te -17.67651349 48.88500974 81.59569720
Bi -19.75533620 47.67303954 83.50217465
Te -19.65445472 50.20167447 85.48153381
Bi -17.61313547 48.88581259 87.62954527
Te -19.82283886 47.59970870 89.24752399
Te -15.42449644 50.12398424 91.99527794
Bi -17.61478434 48.84889079 93.65576584
Te -17.67324200 51.28453750 95.79480842
Bi -15.47297778 50.06132291 97.80559778
Te -17.58457324 48.83066376 99.65280141
Te -19.78202785 47.54551192 102.31427749
Sb -19.78278105 50.01718884 103.99797220
Te -17.64023032 48.76124198 105.90587483
Sb -19.78326652 47.51203383 107.81327958
Te -19.78486813 49.98321734 109.49746915
Te -17.64378262 48.72158884 112.21676728
Sb -17.64885449 51.19074206 113.90529220
Te -15.50329402 49.93658178 115.80510584
Sb -17.65239282 48.68393289 117.70161418
Te -17.65727490 51.15319612 119.39008734
Te -19.80639471 49.89563603 122.10877409
Sb 10.29251514 0.25489619 123.48468367
Te -17.66575284 51.11071566 125.69745818
Sb -19.81429208 49.85838382 127.59497342
Te 10.28463706 0.21765507 128.97088260
Te -19.81816251 47.34786678 131.97905683
Sb -19.82265119 49.81736029 133.66704073
Te -17.67750400 48.56295559 135.56778399
Sb -19.82597930 47.31065998 137.46541487
Te -19.83046570 49.78015470 139.15339844
Te -17.68650497 48.52017359 141.87481085
Sb -17.69098514 50.98967197 143.56278687
Te -15.54584404 49.73526346 145.46354366
Sb -17.69430996 48.48297322 147.36119141
Te -17.69879082 50.95247143 149.04916785
Te -19.84844461 49.69460405 151.76746632
Sb 10.25052855 0.05390106 153.14332026
Te -17.70778382 50.90969377 155.35619867
Sb -19.85625049 49.65740322 157.25384525
Te -19.86073119 52.12690125 158.94182276
Te -19.86013910 47.14687595 161.63781925
Sb -19.86461877 49.61637428 163.32579698
Te -17.71947872 48.36196556 165.22655007
Sb -19.86794405 47.10967551 167.12420492
Te -19.87242319 49.57917445 168.81216845
Te -17.72846551 48.31918993 171.53371738
Sb -17.73294441 50.78868904 173.22164492
Te -15.58780406 49.53427937 175.12250622
Sb -17.73628984 48.28198225 177.01996068
Te -17.74076094 50.75148402 178.70827769
Te -19.89017758 49.49375846 181.42270093
Sb -19.89507081 51.96299978 183.11257619
Te -17.74942077 50.70888546 185.01239754
Sb -19.89789395 49.45661600 186.91127337
Te -19.90303129 51.92593280 188.58649667
Te -19.50475683 49.20351316 191.77345042
Sb -19.51457693 51.67011753 193.45443845
Te -17.36344731 50.41912069 195.35073734
Sb -19.52192871 49.16120387 197.22844508
Te -19.53145257 51.62777861 198.91828740
Te 14.92925555 2.01784960 201.36110426
Bi 12.72942263 0.73761416 203.00703395
Te 12.62742575 3.14801780 205.16804287
Bi 14.90971428 1.87116940 1.52129950
Te 12.82203860 0.65350128 3.41066885
Te 15.33075041 2.08642700 6.46002868
Bi 13.08834585 0.77612465 8.00616699
Te 12.92143450 3.14790726 10.23210690
Bi 15.22111726 1.98147629 12.14185686
Te 13.16687481 0.79429993 14.10122733
Te 15.28518908 1.70349928 17.15472106
Bi 13.04243118 0.38524625 18.69512432
Te 12.86403072 2.75349625 20.92760144
Bi 15.17103745 1.59365751 22.82972224
Te 13.12058991 0.40688358 24.79093102
Te 15.00294491 1.66267532 27.86764313
Bi 12.75380922 0.35142698 29.40592354
Te 12.57051445 2.71379047 31.64253448
Bi 14.88131629 1.55552216 33.54176042
Te 12.83401943 0.36474596 35.50462097
Te 14.71088692 1.62257993 38.58211783
Bi 12.46476959 0.30765030 40.12165494
Te 12.28459856 2.67144825 42.35632665
Bi 14.59257525 1.51023452 44.25890520
Te 12.53973371 0.32508352 46.22285601
Te 14.65091590 1.23196954 49.27843875
Bi -17.69321776 52.02068590 51.13124835
Te 12.23435985 2.27970514 53.05023414
Bi 14.53906170 1.11718875 54.95532206
Te -17.61969319 52.04585171 57.23023815
Te 14.59861591 0.84080011 59.97295141
Bi -17.74897805 51.63492764 61.82543203
Te 12.17596135 1.89313454 63.74599495
Bi 14.48288438 0.73294909 65.64858728
Te -17.66904056 51.65213577 67.92123091
Te 14.48230910 0.50596058 70.68296328
Bi -17.86980539 51.30996408 72.53846996
Te 12.05786248 1.56748628 74.45772910
Bi 14.36010800 0.40347434 76.36482392
Te -17.79257843 51.31736058 78.63926050
Te 14.74345985 0.59473504 81.35772190
Bi -17.57611739 51.41515264 83.27490347
Te 12.40970306 1.70612950 85.15164692
Bi 14.65698918 0.51036184 87.11655500
Te -17.53368395 51.40371080 89.33186375
Te 16.73292835 1.68246693 91.65299196
Bi 14.62687988 0.45494722 93.51285465
Te 14.67557922 2.95314658 95.54233513
Bi 16.76385692 1.66466154 97.64900661
Te 14.57975432 0.39301854 99.33213101
Te -17.62717185 51.27210447 102.35524668
Sb 12.46813239 1.62927395 103.73230602
Te 14.61591172 0.37643083 105.62617858
Sb -17.64143423 51.23126600 107.82563424
Te 12.45467453 1.58888683 109.20513646
Te 14.60152190 0.33056368 111.92855685
Sb 14.59763021 2.80040544 113.61599583
Te 16.74235471 1.54575104 115.51768363
Sb 14.59451922 0.29381851 117.41647413
Te 14.59043933 2.76355118 119.10395246
Te 12.44025248 1.50537906 121.82187420
Sb 12.43583446 3.97491388 123.50979544
Te 14.58093172 2.72047957 125.41065482
Sb 12.43253729 1.46822989 127.30843251
Te 12.42810020 3.93775342 128.99635475
Te -17.67482028 51.06789562 132.00443967
Sb 12.42416002 1.42719713 133.38028678
Te 14.56929616 0.17278598 135.28105470
Sb -17.68261637 51.03070087 137.49083924
Te 12.41636179 1.39000106 138.86668667
Te 14.56031297 0.13001428 141.58809337
Sb 14.55583085 2.59951153 143.27607099
Te 16.70097330 1.34510371 145.17682482
Sb 14.55250540 0.09281276 147.07446954
Te 14.54802380 2.56231013 148.76244710
Te 12.39837190 1.30444353 151.48074721
Sb 12.39389056 3.77394130 153.16872430
Te 14.53903250 2.51953350 155.06947945
Sb 12.39056521 1.26724258 156.96712462
Te 12.38608397 3.73674013 158.65510274
Te -17.71677501 50.86691721 161.66322388
Sb 12.38219662 1.22621348 163.03908123
Te -15.57611395 52.08200753 165.25195415
Sb -17.72458258 50.82971574 167.14960167
Te 12.37438846 1.18901145 168.52544657
Te -15.58511305 52.03922610 171.55910074
Sb 14.51385785 2.39852261 172.93490566
Te 16.65900071 1.14411496 174.83575844
Sb -15.59290029 52.00203410 177.04539080
Te 14.50606082 2.36132197 178.42162978
Te 12.35616997 1.10336109 181.13614862
Sb 12.35210177 3.57309390 182.82519181
Te 14.49672876 2.31840656 184.72600261
Sb 12.34825986 1.06597300 186.62535182
Te 12.34445236 3.53601247 188.29929449
Te 12.72935161 0.80615041 191.47849571
Sb 12.73026045 3.27892506 193.14677153
Te 14.86942652 2.02100274 195.05354240
Sb 12.73097696 0.77434778 196.97181290
Te 12.73178880 3.24692950 198.65472449
Te 12.77900843 5.74000737 201.38339806
Bi 10.57917563 4.45977155 203.02932760
Te 10.47717884 6.87017514 205.19033687
Bi 12.75946741 5.59332681 1.54359352
Te 10.67179195 4.37565822 3.43296283
Te 13.18050317 5.80858449 6.48232250
Bi 10.93809853 4.49828217 8.02846059
Te 10.77118756 6.87006454 10.25440081
Bi 13.07087037 5.70363348 12.16415080
Te 11.01662788 4.51645721 14.12352091
Te 13.13494207 5.42565709 17.17701452
Bi 10.89218384 4.10740392 18.71741751
Te 10.71378384 6.47565344 20.94989505
Bi 13.02079060 5.31581493 22.85201632
Te 10.97034276 4.12904085 24.81322462
Te 12.85269768 5.38483307 27.88993668
Bi 10.60356205 4.07358446 29.42821688
Te 10.42026749 6.43594774 31.66482813
Bi 12.73106936 5.27767952 33.56405400
Te 10.68377266 4.08690321 35.52691435
Te 12.56063984 5.34473775 38.60441139
Bi 10.31452213 4.02980780 40.14394790
Te 10.13435141 6.39360551 42.37862039
Bi 12.44232815 5.23239203 44.28119902
Te 10.38948664 4.04724083 46.24514963
Te 12.50066869 4.95412745 49.30073221
Bi 10.25998907 3.63264257 50.84141875
Te 10.08411288 6.00186247 53.07252770
Bi 12.38881478 4.83934616 54.97761563
Te 10.33351392 3.65780830 56.94040887
Te 12.44836890 4.56295808 59.99524497
Bi 10.20422890 3.24688428 61.53560249
Te 10.02571433 5.61529179 63.76828870
Bi 12.33263735 4.45510654 65.67088073
Te 10.28416651 3.26409232 67.63140181
Te 12.33206182 4.22811804 70.70525699
Bi 10.08340143 2.92192070 72.24864093
Te 9.90761542 5.28964369 74.48002289
Bi 12.20986101 4.12563177 76.38711762
Te 10.16062861 2.92931709 78.34943151
Te 12.59321289 4.31689283 81.38001567
Bi 10.37708964 3.02710928 82.98507431
Te 10.25945600 5.42828695 85.17394095
Bi 12.50674222 4.23251922 87.13884877
Te 10.41952321 3.01566744 89.04203482
Te 14.58268139 5.40462428 91.67528603
Bi 12.47663291 4.17710473 93.53514894
Te 12.52533229 6.67530405 95.56462937
Bi 14.61360998 5.38681888 97.67130074
Te 12.42950756 4.11517598 99.35442523
Te 10.32603526 2.88406141 102.06541808
Sb 10.31788552 5.35143142 103.75460045
Te 12.46566484 4.09858832 105.64847276
Sb 10.31177293 2.84322243 107.53580575
Te 10.30442765 5.31104417 109.22743089
Te 12.45127490 4.05272121 111.95085088
Sb 12.44738332 6.52256282 113.63829025
Te 14.59210781 5.26790844 115.53997780
Sb 12.44427235 4.01597598 117.43876832
Te 12.44019257 6.48570858 119.12624678
Te 10.29000561 5.22753667 121.84416822
Sb 10.28558752 7.69707123 123.53208991
Te 12.43068499 6.44263698 125.43294905
Sb 10.28229034 5.19038728 127.33072658
Te 10.27785333 7.65991074 129.01864907
Te 10.27838652 2.67985220 131.71461081
Sb 10.27391307 5.14935453 133.40258113
Te 12.41904933 3.89494339 135.30334877
Sb 10.27059072 2.64265746 137.20101025
Te 10.26611493 5.11215838 138.88898084
Te 12.41006610 3.85217156 141.61038749
Sb 12.40558399 6.32166889 143.29836515
Te 14.55072637 5.06726127 145.19911912
Sb 12.40225857 3.81496993 147.09676349
Te 12.39777700 6.28446740 148.78474156
Te 10.24812476 5.02660101 151.50304138
Sb 10.24364354 7.49609863 153.19101870
Te 12.38878550 6.24169085 155.09177375
Sb 10.24031830 4.98939988 156.98941879
Te 10.23583697 7.45889746 158.67739705
Te 10.23643205 2.47887394 161.37339513
Sb 10.23194959 4.94837098 163.06137534
Te 12.37709321 3.69396396 164.96212554
Sb 10.22862462 2.44167220 166.85977297
Te 10.22414159 4.91116881 168.54774080
Te 12.36809389 3.65118284 171.26927207
Sb 12.36361076 6.12067994 172.95719973
Te 14.50875374 4.86627250 174.85805252
Sb 12.36030655 3.61399082 176.75556199
Te 12.35581396 6.08347926 178.44392395
Te 10.20592298 4.82551869 181.15844243
Sb 10.20185498 7.29525133 182.84748590
Te 12.34648177 6.04056396 184.74829673
Sb 10.19801289 4.78813034 186.64764588
Te 10.19420550 7.25816983 188.32158880
Te 10.57910469 4.52830797 191.50078960
Sb 10.58001360 7.00108256 193.16906537
Te 12.71917965 5.74316033 195.07583623
Sb 10.58073004 4.49650528 196.99410676
Te 10.58154186 6.96908678 198.67701846
Te 10.62876163 9.46216454 201.40569216
Bi 8.42892879 8.18192900 203.05162185
Te 8.32693193 10.59233242 205.21263119
Bi 10.60922065 9.31548404 1.56588771
Te 8.52154500 8.09781584 3.45525697
Te 11.03025622 9.53074214 6.50461689
Bi 8.78785166 8.22043962 8.05075481
Te 8.62094094 10.59222200 10.27669516
Bi 10.92062361 9.42579076 12.18644485
Te 8.86638133 8.23861425 14.14581508
Te 10.98469514 9.14781488 17.19930871
Bi 8.74193694 7.82956145 18.73971141
Te 8.56353677 10.19781094 20.97218953
Bi 10.87054371 9.03797193 22.87431028
Te 8.82009586 7.85119790 24.83551855
Te 10.70245063 9.10699081 27.91223074
Bi 8.45331503 7.79574195 29.45051090
Te 8.27002065 10.15810485 31.68712244
Bi 10.58082262 8.99983659 33.58634800
Te 8.53352579 7.80906022 35.54920830
Te 10.41039293 9.06689526 38.62670534
Bi 8.16427510 7.75196537 40.16624191
Te 7.98410474 10.11576276 42.40091452
Bi 10.29208129 8.95454911 44.30349311
Te 8.23923961 7.76939796 46.26744356
Te 10.35042192 8.67628485 49.32302599
Bi 8.10974209 7.35480014 50.86371231
Te 7.93386604 9.72401975 53.09482157
Bi 10.23856797 8.56150351 54.99990952
Te 8.18326714 7.37996556 56.96270262
Te 10.29812208 8.28511549 60.01753892
Bi 8.05398203 6.96904203 61.55789637
Te 7.87546735 9.33744897 63.79058262
Bi 10.18239033 8.17726347 65.69317461
Te 8.13391960 6.98624957 67.65369573
Te 10.18181469 7.95027551 70.72755106
Bi 7.93315448 6.64407796 72.27093480
Te 7.75736843 9.01180106 74.50231693
Bi 10.05961398 7.84778896 76.40941157
Te 8.01038157 6.65147444 78.37172553
Te 10.44296611 8.03905003 81.40230988
Bi 8.22684266 6.74926662 83.00736825
Te 8.10920917 9.15044440 85.19623518
Bi 10.35649537 7.95467665 87.16114292
Te 8.26927654 6.73782459 89.06432916
Te 12.43243441 9.12678162 91.69758026
Bi 10.32638597 7.89926216 93.55744308
Te 10.37508534 10.39746132 95.58692381
Bi 12.46336309 9.10897637 97.69359525
Te 10.27926064 7.83733325 99.37671964
Te 8.17578833 6.60621878 102.08771232
Sb 8.16763856 9.07358871 103.77689482
Te 10.31541794 7.82074566 105.67076713
Sb 8.16152612 6.56537981 107.55809988
Te 8.15418090 9.03320140 109.24972518
Te 10.30102798 7.77487856 111.97314538
Sb 10.29713652 10.24472017 113.66058457
Te 12.44186099 8.99006578 115.56227217
Sb 10.29402565 7.73813329 117.46106263
Te 10.28994569 10.20786573 119.14854114
Te 8.13975862 8.94969389 121.86646268
Sb 8.13534087 11.41922843 123.55438434
Te 10.28043816 10.16479419 125.45524353
Sb 8.13204349 8.91254455 127.35302100
Te 8.12760657 11.38206787 129.04094359
Te 8.12813972 6.40200960 131.73690512
Sb 8.12366624 8.87151197 133.42487531
Te 10.26880250 7.61710077 135.32564295
Sb 8.12034377 6.36481480 137.22330438
Te 8.11586823 8.83431568 138.91127508
Te 10.25981926 7.57432905 141.63268168
Sb 10.25533715 10.04382617 143.32065951
Te 12.40047962 8.78941865 145.22141337
Sb 10.25201172 7.53712736 147.11905792
Te 10.24753026 10.00662459 148.80703598
Te 8.09787805 8.74875841 151.52533587
Sb 8.09339677 11.21825582 153.21331317
Te 10.23853888 9.96384807 155.11406799
Sb 8.09007132 8.71155722 157.01171313
Te 8.08559016 11.18105465 158.69969148
Te 8.08618504 6.20103127 161.39568911
Sb 8.08170276 8.67052837 163.08366962
Te 10.22684620 7.41612142 164.98441974
Sb 8.07837764 6.16382972 166.88206725
Te 8.07389465 8.63332611 168.57003514
Te 10.21784691 7.37334023 171.29156624
Sb 10.21336388 9.84283734 172.97949412
Te 12.35850691 8.58842988 174.88034674
Sb 10.21005984 7.33614812 176.77785623
Te 10.20556716 9.80563651 178.46621822
Te 8.05567613 8.54767599 181.18073659
Sb 8.05160824 11.01740863 182.86978012
Te 10.19623494 9.76272140 184.77059095
Sb 8.04776611 8.51028760 186.66994013
Te 8.04395872 10.98032702 188.34388319
Te 8.42885758 8.25046574 191.52308352
Sb 8.42976643 10.72323988 193.19135981
Te 10.56893261 9.46531762 195.09813038
Sb 8.43048305 8.21866264 197.01640076
Te 8.43129504 10.69124397 198.69931271
Te 8.47851475 13.18432202 201.42798642
Bi 6.27868193 11.90408634 203.07391613
Te 6.17668553 14.31448965 205.23492559
Bi 8.45897378 13.03764125 1.58818222
Te 6.37129832 11.81997265 3.47755133
Te 8.88000971 13.25289966 6.52691125
Bi 6.63760493 11.94259713 8.07304900
Te 6.47069429 14.31437922 10.29898981
Bi 8.77037701 13.14794780 12.20873946
Te 6.71613462 11.96077105 14.16810946
Te 8.83444853 12.86997231 17.22160314
Bi 6.59169017 11.55171905 18.76200582
Te 6.41329015 13.91996813 20.99448409
Bi 8.72029711 12.76012924 22.89660486
Te 6.66984931 11.57335458 24.85781299
Te 8.55220376 12.82914818 27.93452528
Bi 6.30306815 11.51789932 29.47280543
Te 6.11977396 13.88026229 31.70941701
Bi 8.43057583 12.72199348 33.60864246
Te 6.38327913 11.53121694 35.57150275
Te 8.26014583 12.78905268 38.64899961
Bi 6.01402824 11.47412273 40.18853646
Te 5.83385781 13.83791994 42.42320911
Bi 8.14183459 12.67670629 44.32578726
Te 6.08899304 11.49155495 46.28973782
Te 8.20017497 12.39844238 49.34532017
Bi 5.95949529 11.07695751 50.88600652
Te 5.78361934 13.44617699 53.11711602
Bi 8.08832150 12.28366064 55.02220359
Te 6.03302070 11.10212249 56.98499683
Te 8.14787522 12.00727302 60.03983315
Bi 5.90373509 10.69119939 61.58019038
Te 5.72522031 13.05960628 63.81287718
Bi 8.03214357 11.89942067 65.71546879
Te 5.98367294 10.70840647 67.67599000
Te 8.03156769 11.67243327 70.74984540
Bi 5.78290746 10.36623541 72.29322888
Te 5.60712146 12.73395825 74.52461139
Bi 7.90936717 11.56994601 76.43170587
Te 5.86013469 10.37363145 78.39401977
Te 8.29271919 11.76120735 81.42460410
Bi 6.07659573 10.47142404 83.02966263
Te 5.95896248 12.87260166 85.21852984
Bi 8.20624868 11.67683390 87.18343750
Te 6.11902975 10.45998195 89.08662347
Te 10.28218753 12.84893869 91.71987484
Bi 8.17613918 11.62141935 93.57973773
Te 8.22483886 14.11961859 95.60921854
Bi 10.31311638 12.83113352 97.71588994
Te 8.12901387 11.55949028 99.39901420
Te 6.02554163 10.32837589 102.11000667
Sb 6.01739201 12.79574580 103.79918932
Te 8.16517108 11.54290291 105.69306164
Sb 6.01127931 10.28753705 107.58039460
Te 6.00393414 12.75535866 109.27201990
Te 8.15078119 11.49703585 111.99543974
Sb 8.14688975 13.96687740 113.68287908
Te 10.29161424 12.71222294 115.58456668
Sb 8.14377885 11.46029053 117.48335681
Te 8.13969904 13.93002289 119.17083575
Te 5.98951195 12.67185130 121.88875706
Sb 5.98509420 15.14138546 123.57667903
Te 8.13019146 13.88695143 125.47753804
Sb 5.98179676 12.63470181 127.37531557
Te 5.97735989 15.10422484 129.06323844
Te 5.97789293 10.12416707 131.75919928
Sb 5.97341960 12.59366914 133.44716983
Te 8.11855588 11.33925809 135.34793732
Sb 5.97009710 10.08697214 137.24559879
Te 5.96562155 12.55647277 138.93356949
Te 8.10957239 11.29648637 141.65497613
Sb 8.10509058 13.76598328 143.34295408
Te 10.25023295 12.51157584 145.24370794
Sb 8.10176506 11.25928451 147.14135234
Te 8.09728365 13.72878180 148.82933071
Te 5.94763113 12.47091574 151.54763015
Sb 5.94315009 14.94041310 153.23560777
Te 8.08829211 13.68600534 155.13636268
Sb 5.93982467 12.43371456 157.03400769
Te 5.93534334 14.90321189 158.72198606
Te 5.93593806 9.92318872 161.41798342
Sb 5.93145614 12.39268557 163.10596394
Te 8.07659930 11.13827875 165.00671402
Sb 5.92813071 9.88598706 166.90436157
Te 5.92364789 12.35548342 168.59232954
Te 8.06760004 11.09549755 171.31386055
Sb 8.06311722 13.56499444 173.00178847
Te 10.20826018 12.31058703 174.90264121
Sb 8.05981298 11.05830543 176.80015055
Te 8.05532049 13.52779358 178.48851275
Te 5.90542946 12.26983328 181.20303092
Sb 5.90136169 14.73956568 182.89207465
Te 8.04598845 13.48487843 184.79288541
Sb 5.89751949 12.23244471 186.69223447
Te 5.89371215 14.70248396 188.36617767
Te 6.27861076 11.97262313 191.54537793
Sb 6.27951974 14.44539729 193.21365441
Te 8.41868610 13.18747493 195.12042480
Sb 6.28023629 11.94081996 197.03869494
Te 6.28104829 14.41340118 198.72160715
Te 6.32826809 16.90647923 201.45028103
Bi 4.12843526 15.62624339 203.09621080
Te 4.02643888 18.03664661 205.25722021
Bi 6.30872725 16.75979857 1.61047687
Te 4.22105154 15.54213001 3.49984592
Te 6.72976308 16.97505674 6.54920596
Bi 4.48735822 15.66475445 8.09534374
Te 4.32044784 18.03653615 10.32128457
Bi 6.62013066 16.87010493 12.23103412
Te 4.56588829 15.68292812 14.19040413
Te 6.68420186 16.59212974 17.24389802
Bi 4.44144344 15.27387655 18.78430061
Te 4.26304392 17.64212535 21.01677911
Bi 6.57005052 16.48228627 22.91889963
Te 4.51960275 15.29551157 24.88010769
Te 6.40195721 16.55130560 27.95682001
Bi 4.15282152 15.24005669 29.49509977
Te 3.96952749 17.60241942 31.73171194
Bi 6.28032937 16.44415063 33.63093733
Te 4.23303266 15.25337382 35.59379751
Te 6.10989937 16.51121022 38.67129437
Bi 3.86378152 15.19628019 40.21083094
Te 3.68361142 17.56007703 42.44550392
Bi 5.99158801 16.39886318 44.34808208
Te 3.93874648 15.21371176 46.31203243
Te 6.04992827 16.12059988 49.36761485
Bi 3.80924856 14.79911496 50.90830106
Te 3.63337265 17.16833391 53.13941088
Bi 5.93807483 16.00581784 55.04449808
Te 3.88277408 14.82427937 57.00729137
Te 5.99762861 15.72943039 60.06212780
Bi 3.75348834 14.41335664 61.60248480
Te 3.57497378 16.78176333 63.83517190
Bi 5.88189681 15.62157760 65.73776340
Te 3.83342637 14.43056349 67.69828470
Te 5.88132093 15.39459059 70.77213987
Bi 3.63266045 14.08839286 72.31552337
Te 3.45687471 16.45611516 74.54690598
Bi 5.75912039 15.29210316 76.45400042
Te 3.70988813 14.09578826 78.41631438
Te 6.14247241 15.48336456 81.44689882
Bi 3.92634902 14.19358125 83.05195736
Te 3.80871585 16.59475879 85.24082452
Bi 6.05600223 15.39899110 87.20573223
Te 3.96878306 14.18213896 89.10891811
Te 8.13194098 16.57109579 91.74216940
Bi 6.02589256 15.34357641 93.60203237
Te 6.07459221 17.84177561 95.63151309
Bi 8.16286975 16.55329050 97.73818456
Te 5.97876718 15.28164728 99.42130880
Te 3.87529490 14.05053311 102.13230124
Sb 3.86714523 16.51790299 103.82148388
Te 6.01492431 15.26506002 105.71535619
Sb 3.86103260 14.00969416 107.60268910
Te 3.85368753 16.47751566 109.29431449
Te 6.00053446 15.21919307 112.01773416
Sb 5.99664326 17.68903436 113.70517378
Te 8.14136761 16.43438000 115.60686136
Sb 5.99353210 15.18244764 117.50565166
Te 5.98945242 17.65217990 119.19313046
Te 3.83926523 16.39400845 121.91105174
Sb 3.83484763 18.86354251 123.59897370
Te 5.97994478 17.60910845 125.49983282
Sb 3.83155012 16.35685893 127.39761016
Te 3.82711334 18.82638211 129.08553299
Te 3.82764623 13.84632423 131.78149367
Sb 3.82317292 16.31582606 133.46946430
Te 5.96830920 15.06141526 135.37023196
Sb 3.81985037 13.80912932 137.26789334
Te 3.81537494 16.27862994 138.95586420
Te 5.95932564 15.01864358 141.67727074
Sb 5.95484400 17.48814041 143.36524865
Te 8.09998631 16.23373293 145.26600266
Sb 5.95151832 14.98144183 147.16364715
Te 5.94703718 17.45093889 148.85162532
Te 3.79738459 16.19307277 151.56992475
Sb 3.79290337 18.66257010 153.25790228
Te 5.93804555 17.40816247 155.15865725
Sb 3.78957812 16.15587165 157.05630209
Te 3.78509672 18.62536892 158.74428074
Te 3.78569152 13.64534602 161.44027785
Sb 3.78120941 16.11484282 163.12825857
Te 5.92635255 14.86043591 165.02900853
Sb 3.77788401 13.60814440 166.92665611
Te 3.77340130 16.07764074 168.61462421
Te 5.91735338 14.81765489 171.33615501
Sb 5.91287061 17.28715177 173.02408318
Te 8.05801344 16.03274407 174.92493584
Sb 5.90956628 14.78046257 176.82244525
Te 5.90507384 17.24995072 178.51080740
Te 3.75518286 15.99199064 181.22532544
Sb 3.75111513 18.46172263 182.91436915
Te 5.89574178 17.20703547 184.81517994
Sb 3.74727296 15.95460181 186.71452911
Te 3.74346571 18.42464077 188.38847224
Te 4.12836415 15.69478060 191.56767239
Sb 4.12927303 18.16755454 193.23594894
Te 6.26843944 16.90963223 195.14271937
Sb 4.12998974 15.66297711 197.06098958
Te 4.13080166 18.13555817 198.74390191
Te 4.17802155 20.62863645 201.47257595
Bi 1.97818881 19.34840057 203.11850565
Te 1.87619235 21.75880381 205.27951508
Bi 4.15848065 20.48195551 1.63277161
Te 2.07080510 19.26428667 3.52214063
Te 4.57951667 20.69721391 6.57150082
Bi 2.33711185 19.38691161 8.11763885
Te 2.17020145 21.75869328 10.34357967
Bi 4.46988428 20.59226200 12.25332927
Te 2.41564198 19.40508511 14.21269902
Te 4.53395523 20.31428692 17.26619303
Bi 2.29119703 18.99603364 18.80659588
Te 2.11279749 21.36428237 21.03907426
Bi 4.41980413 20.20444335 22.94119475
Te 2.36935635 19.01766857 24.90240281
Te 4.25171064 20.27346280 27.97911505
Bi 2.00257506 18.96221394 29.51739500
Te 1.81928105 21.32457670 31.75400711
Bi 4.13008293 20.16630766 33.65323254
Te 2.08278605 18.97553067 35.61609260
Te 3.95965261 20.23336739 38.69358949
Bi 1.71353493 18.91843738 40.23312593
Te 1.53336486 21.28223414 42.46779910
Bi 3.84134148 20.12102014 44.37037720
Te 1.78849992 18.93586850 46.33432736
Te 3.89968186 19.84275723 49.38990979
Bi 1.65900199 18.52127215 50.93059594
Te 1.48312598 20.89049089 53.16170599
Bi 3.78782820 19.72797470 55.06679315
Te 1.73252757 18.54643624 57.02958632
Te 3.84738193 19.45158754 60.08442273
Bi 1.60324163 18.13551398 61.62477979
Te 1.42472725 20.50392037 63.85746694
Bi 3.73165035 19.34373456 65.76005831
Te 1.68317974 18.15272043 67.72057944
Te 3.73107432 19.11674772 70.79443465
Bi 1.48241375 17.81054992 72.33781795
Te 1.30662806 20.17827227 74.56920076
Bi 3.60887380 19.01426025 76.47629524
Te 1.55964145 17.81794538 78.43860909
Te 3.99222561 19.20552161 81.46919360
Bi 1.77610233 17.91573846 83.07425210
Te 1.65846933 20.31691565 85.26311932
Bi 3.90575551 19.12114805 87.22802700
Te 1.81853630 17.90429595 89.13121283
Te 5.98169421 20.29325288 91.76446410
Bi 3.87564589 19.06573342 93.62432696
Te 3.92434547 21.56393237 95.65380783
Bi 6.01262322 20.27544751 97.76047907
Te 3.82852054 19.00380439 99.44360330
Te 1.72504819 17.77269015 102.15459598
Sb 1.71689856 20.24006006 103.84377864
Te 3.86467779 18.98721709 105.73765077
Sb 1.71078600 17.73185135 107.62498381
Te 1.70344095 20.19967276 109.31660922
Te 3.85028794 18.94135009 112.04002893
Sb 3.84639671 21.41119148 113.72746850
Te 5.99112097 20.15653709 115.62915607
Sb 3.84328550 18.90460472 117.52794635
Te 3.83920588 21.37433702 119.21542516
Te 1.68901870 20.11616552 121.93334636
Sb 1.68460101 22.58569963 123.62126849
Te 3.82969832 21.33126544 125.52212751
Sb 1.68130355 20.07901592 127.41990494
Te 1.67686683 22.54853923 129.10782772
Te 1.67739962 17.56848139 131.80378816
Sb 1.67292641 20.03798326 133.49175890
Te 3.81806260 18.78357217 135.39252644
Sb 1.66960379 17.53128647 137.29018791
Te 1.66512835 20.00078695 138.97815875
Te 3.80907900 18.74080072 141.69956541
Sb 3.80459735 21.21029760 143.38754353
Te 5.94973970 19.95589003 145.28829742
Sb 3.80127177 18.70359887 147.18594189
Te 3.79679043 21.17309599 148.87392004
Te 1.64713791 19.91522993 151.59221937
Sb 1.64265679 22.38472706 153.28019697
Te 3.78779892 21.13031958 155.18095194
Sb 1.63933145 19.87802866 157.07859677
Te 1.63485027 22.34752599 158.76657540
Te 1.63544477 17.36750325 161.46257254
Sb 1.63096279 19.83699983 163.15055329
Te 3.77610604 18.58259302 165.05130322
Sb 1.62763740 17.33030144 166.94895074
Te 1.62315469 19.79979781 168.63691890
Te 3.76710676 18.53981195 171.35844957
Sb 3.76262399 21.00930881 173.04637768
Te 5.90776684 19.75490140 174.94723062
Sb 3.75931962 18.50261970 176.84473986
Te 3.75482718 20.97210779 178.53310220
Te 1.60493621 19.71414774 181.24762020
Sb 1.60086858 22.18387969 182.93666397
Te 3.74549518 20.92919244 184.83747470
Sb 1.59702637 19.67675874 186.73682379
Te 1.59321906 22.14679756 188.41076694
Te 1.97811767 19.41693781 191.58996705
Sb 1.97902661 21.88971184 193.25824354
Te 4.11819278 20.63178932 195.16501413
Sb 1.97974308 19.38513443 197.08328432
Te 1.98055513 21.85771532 198.76619660
Te 2.02777509 24.35079346 201.49487069
Bi -0.17205773 23.07055757 203.14080058
Te -0.27405412 25.48096083 205.30180999
Bi 2.00823419 24.20411259 1.65506658
Te -0.07944146 22.98644373 3.54443555
Te 2.42927033 24.41937111 6.59379589
Bi 0.18686552 23.10906878 8.13993365
Te 0.01995513 25.48085034 10.36587476
Bi 2.31963786 24.31441915 12.27562442
Te 0.26539558 23.12724200 14.23499413
Te 2.38370895 24.03644406 17.28848816
Bi 0.14095061 22.71819074 18.82889105
Te -0.03744890 25.08643957 21.06136950
Bi 2.26955769 23.92660050 22.96348991
Te 0.21910987 22.73982566 24.92469796
Te 2.10146424 23.99561997 28.00141028
Bi -0.14767137 22.68437119 29.53969019
Te -0.33096534 25.04673365 31.77630242
Bi 1.97983645 23.88846475 33.67552779
Te -0.06746019 22.69768774 35.63838788
Te 1.80940617 23.95552458 38.71588458
Bi -0.43671147 22.64059450 40.25542106
Te -0.61688140 25.00439111 42.49009433
Bi 1.69109521 23.84317724 44.39267258
Te -0.36174658 22.65802535 46.35662255
Te 1.74943539 23.56491425 49.41220502
Bi -0.49124455 22.24342931 50.95289109
Te -0.66712047 24.61264796 53.18400117
Bi 1.63758175 23.45013165 55.08908832
Te -0.41771893 22.26859300 57.05188154
Te 1.69713552 23.17374480 60.10671762
Bi -0.54700498 21.85767092 61.64707489
Te -0.72551923 24.22607732 63.87976207
Bi 1.58140384 23.06589146 65.78235345
Te -0.46706681 21.87487723 67.74287447
Te 1.58082779 22.83890489 70.81672951
Bi -0.66783287 21.53270713 72.36011293
Te -0.84361843 23.90042951 74.59149578
Bi 1.45862728 22.73641730 76.49859012
Te -0.59060507 21.54010242 78.46090398
Te 1.84197898 22.92767869 81.49148834
Bi -0.37414426 21.63789531 83.09654686
Te -0.49177723 24.03907274 85.28541406
Bi 1.75550901 22.84330500 87.25032177
Te -0.33171019 21.62645280 89.15350747
Te 3.83144781 24.01540997 91.78675891
Bi 1.72539933 22.78789037 93.64662160
Te 1.77409907 25.28608943 95.67610245
Bi 3.86237671 23.99760462 97.78277404
Te 1.67827404 22.72596137 99.46589801
Te -0.42519832 21.49484720 102.17689064
Sb -0.43334790 23.96221712 103.86607327
Te 1.71443121 22.70937419 105.75994551
Sb -0.43946060 21.45400835 107.64727854
Te -0.44680558 23.92182978 109.33890398
Te 1.70004119 22.66350712 112.06232365
Sb 1.69615010 25.13334843 113.74976324
Te 3.84087448 23.87869415 115.65145079
Sb 1.69303896 22.62676193 117.55024096
Te 1.68895934 25.09649410 119.23771982
Te -0.46122779 23.83832255 121.95564116
Sb -0.46564558 26.30785664 123.64356316
Te 1.67945172 25.05342263 125.54442221
Sb -0.46894295 23.80117308 127.44219953
Te -0.47337977 26.27069615 129.13012244
Te -0.47284689 21.29063847 131.82608267
Sb -0.47732021 23.76014029 133.51405363
Te 1.66781605 22.50572933 135.41482118
Sb -0.48064278 21.25344344 137.31248255
Te -0.48511817 23.72294392 139.00045343
Te 1.65883238 22.46295782 141.72186027
Sb 1.65435089 24.93245465 143.40983813
Te 3.79949309 23.67804712 145.31059209
Sb 1.65102521 22.42575585 147.20823653
Te 1.64654394 24.89525297 148.89621473
Te -0.50310858 23.63738697 151.61451398
Sb -0.50758971 26.10688426 153.30249164
Te 1.63755235 24.85247659 155.20324649
Sb -0.51091508 23.60018575 157.10089149
Te -0.51539622 26.06968303 158.78887015
Te -0.51480178 21.08966019 161.48486714
Sb -0.51928376 23.55915700 163.17284796
Te 1.62585952 22.30475013 165.07359789
Sb -0.52260912 21.05245854 166.97124521
Te -0.52709180 23.52195476 168.65921355
Te 1.61686017 22.26196926 171.38074431
Sb 1.61237745 24.73146589 173.06867268
Te 3.75752041 23.47705848 174.96952530
Sb 1.60907302 22.22477684 176.86703459
Te 1.60458069 24.69426468 178.55539700
Te -0.54531032 23.43630480 181.26991493
Sb -0.54937802 25.90603674 182.95895885
Te 1.59524862 24.65134946 184.85976960
Sb -0.55322015 23.39891576 186.75911863
Te -0.55702743 25.86895454 188.43306197
Te -0.17212903 23.13909495 191.61226191
Sb -0.17121987 25.61186883 193.28053856
Te 1.96794623 24.35394645 195.18730904
Sb -0.17050345 23.10729143 197.10557920
Te -0.16969132 25.57987244 198.78849165
Te -0.12247148 28.07295057 201.51716584
Bi -2.32230428 26.79271462 203.16309554
Te -2.42430047 29.20311793 205.32410496
Bi -0.14201225 27.92626969 1.67736172
Te -2.22968785 26.70860074 3.56673056
Te 0.27902379 28.14152824 6.61609101
Bi -1.96338100 26.83122570 8.16222897
Te -2.13029149 29.20300737 10.38816991
Bi 0.16939138 28.03657608 12.29791950
Te -1.88485095 26.84939917 14.25728914
Te 0.23346244 27.75860125 17.31078330
Bi -2.00929568 26.44034787 18.85118619
Te -2.18769542 28.80859647 21.08366455
Bi 0.11931116 27.64875759 22.98578516
Te -1.93113651 26.46198271 24.94699327
Te -0.04878223 27.71777711 28.02370548
Bi -2.29791781 26.40652832 29.56198541
Te -2.48121180 28.76889081 31.79859770
Bi -0.17040993 27.61062192 33.69782304
Te -2.21770661 26.41984452 35.66068310
Te -0.34084033 27.67768168 38.73817996
Bi -2.58695789 26.36275157 40.27771654
Te -2.76712785 28.72654823 42.51238974
Bi -0.45915127 27.56533427 44.41496778
Te -2.51199303 26.38018244 46.37891785
Te -0.40081118 27.28707122 49.43450020
Bi -2.64149107 25.96558624 50.97518634
Te -2.81736709 28.33480490 53.20629654
Bi -0.51266481 27.17228873 55.11138364
Te -2.56796551 25.99074997 57.07417676
Te -0.45311099 26.89590174 60.12901286
Bi -2.69725141 25.57982801 61.66937009
Te -2.87576567 27.94823445 63.90205727
Bi -0.56884269 26.78804843 65.80464865
Te -2.61731327 25.59703413 67.76516955
Te -0.56941876 26.56106203 70.83902452
Bi -2.81807942 25.25486431 72.38240795
Te -2.99386482 27.62258672 74.61379073
Bi -0.69161921 26.45857421 76.52088499
Te -2.74085173 25.26225952 78.48319880
Te -0.30826742 26.64983573 81.51378318
Bi -2.52439082 25.36005236 83.11884165
Te -2.64202377 27.76122965 85.30770883
Bi -0.39473756 26.56546203 87.27261655
Te -2.48195675 25.34860976 89.17580219
Te 1.68120125 27.73756692 91.80905360
Bi -0.42484707 26.51004752 93.66891649
Te -0.37614751 29.00824643 95.69839730
Bi 1.71212998 27.71976160 97.80506858
Te -0.47197247 26.44811829 99.48819284
Te -2.57544505 25.21700440 102.19918532
Sb -2.58359441 27.68437405 103.88836802
Te -0.43581533 26.43153111 105.78224025
Sb -2.58970709 25.17616539 107.66957306
Te -2.59705223 27.64398677 109.36119866
Te -0.45020525 26.38566430 112.08461839
Sb -0.45409645 28.85550559 113.77205800
Te 1.69062791 27.60085119 115.67374553
Sb -0.45720757 26.34891883 117.57253572
Te -0.46128723 28.81865107 119.26001459
Te -2.61147440 27.56047970 121.97793592
Sb -2.61589207 30.03001375 123.66585785
Te -0.47079483 28.77557965 125.56671692
Sb -2.61918956 27.52333011 127.46449435
Te -2.62362633 29.99285319 129.15241718
Te -2.62309350 25.01279554 131.84837750
Sb -2.62756679 27.48229726 133.53634844
Te -0.48243050 26.22788630 135.43711597
Sb -2.63088933 24.97560034 137.33477723
Te -2.63536472 27.44510095 139.02274819
Te -0.49141406 26.18511480 141.74415485
Sb -0.49589565 28.65461165 143.43213282
Te 1.64924660 27.40020406 145.33288683
Sb -0.49922134 26.14791307 147.23053128
Te -0.50370263 28.61741002 148.91850948
Te -2.65335518 27.35954405 151.63680869
Sb -2.65783631 29.82904131 153.32478631
Te -0.51269423 28.57463369 155.22554123
Sb -2.66116162 27.32234275 157.12318616
Te -2.66564270 29.79184003 158.81116482
Te -2.66504829 24.81181732 161.50716186
Sb -2.66953028 27.28131399 163.19514267
Te -0.52438711 26.02690718 165.09589269
Sb -2.67285578 24.77461552 166.99354011
Te -2.67733844 27.24411188 168.68150842
Te -0.53338632 25.98412614 171.40303902
Sb -0.53786911 28.45362299 173.09096741
Te 1.60727384 27.19921552 174.99182014
Sb -0.54117358 25.94693383 176.88932939
Te -0.54566579 28.41642178 178.57769170
Te -2.69555695 27.15846182 181.29220983
Sb -2.69962457 29.62819381 182.98125385
Te -0.55499790 28.37350653 184.88206451
Sb -2.70346678 27.12107271 186.78141327
Te -2.70727390 29.59111147 188.45535692
Te -2.32237563 26.86125198 191.63455662
Sb -2.32146642 29.33402582 193.30283344
Te -0.18230014 28.07610355 195.20960395
Sb -2.32074996 26.82944847 197.12787392
Te -2.31993788 29.30202943 198.81078660
Te -2.27271797 31.79510749 201.53946068
Bi -4.47255080 30.51487158 203.18539045
Te -4.57454709 32.92527473 205.34639994
Bi -2.29225879 31.64842660 1.69965662
Te -4.37993425 30.43075769 3.58902544
Te -1.87122256 31.86368524 6.63838607
Bi -4.11362739 30.55338286 8.18452385
Te -4.28053795 32.92516455 10.41046489
Bi -1.98085518 31.75873328 12.32021466
Te -4.03509744 30.57155623 14.27958443
Te -1.91678392 31.48075804 17.33307851
Bi -4.15954219 30.16250474 18.87348126
Te -4.33794181 32.53075356 21.10595971
Bi -2.03093530 31.37091471 23.00808015
Te -4.08138285 30.18414000 24.96928816
Te -2.19902864 31.43993403 28.04600071
Bi -4.44816431 30.12868523 29.58428059
Te -4.63145830 32.49104776 31.82089287
Bi -2.32065638 31.33277907 33.72011822
Te -4.36795288 30.14200176 35.68297827
Te -2.49108656 31.39983866 38.76047516
Bi -4.73720431 30.08490864 40.30001163
Te -4.91737405 32.44870527 42.53468479
Bi -2.60939751 31.28749147 44.43726308
Te -4.66223930 30.10233941 46.40121307
Te -2.55105777 31.00922813 49.45679554
Bi -4.79173760 29.68774323 50.99748169
Te -4.96761356 32.05696193 53.22859172
Bi -2.66291136 30.89444566 55.13367900
Te -4.71821200 29.71290699 57.09647210
Te -2.60335752 30.61805871 60.15130803
Bi -4.84749788 29.30198500 61.69166514
Te -5.02601226 31.67039139 63.92435218
Bi -2.71908926 30.51020555 65.82694369
Te -4.76755977 29.31919123 67.78746476
Te -2.71966539 30.28321898 70.86131957
Bi -4.96832593 28.97702135 72.40470315
Te -5.14411128 31.34474373 74.63608575
Bi -2.84186564 30.18073147 76.54318024
Te -4.89109807 28.98441647 78.50549380
Te -2.45851401 30.37199285 81.53607808
Bi -4.67463724 29.08220932 83.14113654
Te -4.79227032 31.48338661 85.33000369
Bi -2.54498412 30.28761887 87.29491146
Te -4.63220322 29.07076664 89.19809722
Te -0.46904511 31.45972405 91.83134837
Bi -2.57509363 30.23220448 93.69121100
Te -2.52639410 32.73040353 95.72069184
Bi -0.43811645 31.44191866 97.82736353
Te -2.62221910 30.17027532 99.51048753
Te -4.72569156 28.93916125 102.22147994
Sb -4.73384095 31.40653112 103.91066265
Te -2.58606186 30.15368814 105.80453486
Sb -4.73995370 28.89832239 107.69186790
Te -4.74729876 31.36614382 109.38349334
Te -2.60045181 30.10782130 112.10691306
Sb -2.60434301 32.57766260 113.79435268
Te -0.45961854 31.32300832 115.69604017
Sb -2.60745412 30.07107590 117.59483051
Te -2.61153378 32.54080816 119.28230933
Te -4.76172091 31.28263660 122.00023063
Sb -4.76613855 33.75217084 123.68815249
Te -2.62104143 32.49773671 125.58901166
Sb -4.76943610 31.24548719 127.48678913
Te -4.77387290 33.71501032 129.17471184
Te -4.77334008 28.73495254 131.87067219
Sb -4.77781331 31.20445437 133.55864304
Te -2.63267713 29.95004338 135.45941060
Sb -4.78113586 28.69775747 137.35707198
Te -4.78561129 31.16725796 139.04504291
Te -2.64166066 29.90727193 141.76644961
Sb -2.64614228 32.37676880 143.45442759
Te -0.50099988 31.12236112 145.35518145
Sb -2.64946793 29.87007003 147.25282597
Te -2.65394929 32.33956714 148.94080421
Te -4.80360164 31.08170110 151.65910334
Sb -4.80808277 33.55119838 153.34708113
Te -2.66294072 32.29679076 155.24783597
Sb -4.81140816 31.04449992 157.14548074
Te -4.81588935 33.51399724 158.83345950
Te -4.81529494 28.53397439 161.52945655
Sb -4.81977687 31.00347093 163.21743733
Te -2.67463355 29.74906416 165.11818737
Sb -4.82310226 28.49677260 167.01583485
Te -4.82758489 30.96626891 168.70380316
Te -2.68363286 29.70628314 171.42533375
Sb -2.68811561 32.17577989 173.11326215
Te -0.54297269 30.92137256 175.01411490
Sb -2.69142000 29.66909087 176.91162411
Te -2.69591230 32.13857867 178.59998652
Te -4.84580342 30.88061890 181.31450483
Sb -4.84987111 33.35035087 183.00354881
Te -2.70524443 32.09566350 184.90435949
Sb -4.85371330 30.84322981 186.80370859
Te -4.85752059 33.31326860 188.47765176
Te -4.47262220 30.58340883 191.65685155
Sb -4.47171295 33.05618271 193.32512828
Te -2.33254671 31.79826049 195.23189894
Sb -4.47099650 30.55160546 197.15016904
Te -4.47018437 33.02418652 198.83308155
Te -4.42296449 35.51726466 201.56175562
Bi -6.62279716 34.23702872 203.20768535
Te -6.72479402 36.64743184 205.36869487
Bi -4.44250530 35.37058371 1.72195156
Te -6.53018063 34.15291475 3.61132051
Te -4.02146909 35.58584224 6.66068081
Bi -6.26387388 34.27553985 8.20681881
Te -6.43078457 36.64732157 10.43275967
Bi -4.13110177 35.48089027 12.34250973
Te -6.18534426 34.29371350 14.30187946
Te -4.06703045 35.20291498 17.35537349
Bi -6.30978868 33.88466175 18.89577628
Te -6.48818835 36.25291052 21.12825459
Bi -4.18118174 35.09307179 23.03037505
Te -6.23162930 33.90629713 24.99158335
Te -4.34927491 35.16209092 28.06829580
Bi -6.59841069 33.85084240 29.60657583
Te -6.78170488 36.21320490 31.84318781
Bi -4.47090289 35.05493619 33.74241316
Te -6.51819960 33.86415902 35.70527344
Te -4.64133309 35.12199546 38.78277022
Bi -6.88745062 33.80706545 40.32230688
Te -7.06762076 36.17086234 42.55697977
Bi -4.75964413 35.00964846 44.45955803
Te -6.81248559 33.82449659 46.42350818
Te -4.70130426 34.73138525 49.47909074
Bi -6.94198413 33.40990026 51.01977690
Te -7.11786009 35.77911904 53.25088681
Bi -4.81315794 34.61660270 55.15597415
Te -6.86845854 33.43506429 57.11876734
Te -4.75360395 34.34021581 60.17360314
Bi -6.99774420 33.02414201 61.71396006
Te -7.17625874 35.39254862 63.94664708
Bi -4.86933562 34.23236276 65.84923861
Te -6.91780622 33.04134835 67.80975971
Te -4.86991169 34.00537615 70.88361452
Bi -7.11857230 32.69917844 72.42699782
Te -7.29435762 35.06690089 74.65838075
Bi -4.99211193 33.90288852 76.56547510
Te -7.04134448 32.70657358 78.52778876
Te -4.60876059 34.09414982 81.55837289
Bi -6.82488384 32.80436638 83.16343138
Te -6.94251682 35.20554375 85.35229857
Bi -4.69523053 34.00977608 87.31720613
Te -6.78244965 32.79292392 89.22039207
Te -2.61929176 35.18188096 91.85364313
Bi -4.72534024 33.95436142 93.71350573
Te -4.67664072 36.45256058 95.74298656
Bi -2.58836304 35.16407576 97.84965801
Te -4.77246566 33.89243246 99.53278221
Te -6.87593807 32.66131845 102.24377469
Sb -6.88408745 35.12868814 103.93295747
Te -4.73630829 33.87584514 105.82682952
Sb -6.89020029 32.62047952 107.71416254
Te -6.89754532 35.08830102 109.40578785
Te -4.75069838 33.82997837 112.12920769
Sb -4.75458970 36.29981974 113.81664723
Te -2.60986524 35.04516542 115.71833486
Sb -4.75770066 33.79323293 117.61712507
Te -4.76178042 36.26296532 119.30460393
Te -6.91196744 35.00479364 122.02252522
Sb -6.91638519 37.47432789 123.71044714
Te -4.77128796 36.21989380 125.61130631
Sb -6.91968264 34.96764414 127.50908387
Te -6.92411948 37.43716752 129.19700649
Te -6.92358661 32.45710960 131.89296696
Sb -6.92805996 34.92661140 133.58093775
Te -4.78292362 33.67220049 135.48170535
Sb -6.93138242 32.41991448 137.37936663
Te -6.93585787 34.88941508 139.06733755
Te -4.79190722 33.62942887 141.78874428
Sb -4.79638890 36.09892574 143.47672215
Te -2.65124657 34.84451823 145.37747616
Sb -4.79971451 33.59222699 147.27512050
Te -4.80419579 36.06172430 148.96309887
Te -6.95384819 34.80385826 151.68139800
Sb -6.95832945 37.27335554 153.36937573
Te -4.81318732 36.01894787 155.27013069
Sb -6.96165473 34.76665705 157.16777547
Te -6.96613590 37.23615434 158.85575404
Te -6.96554156 32.25613132 161.55175123
Sb -6.97002341 34.72562807 163.23973205
Te -4.82488022 33.47122118 165.14048202
Sb -6.97334882 32.21892949 167.03812949
Te -6.97783147 34.68842588 168.72609773
Te -4.83387939 33.42844022 171.44762851
Sb -4.83836214 35.89793691 173.13555688
Te -2.69321923 34.64352944 175.03640967
Sb -4.84166659 33.39124789 176.93391904
Te -4.84615890 35.86073592 178.62228109
Te -6.99604998 34.60277598 181.33679979
Sb -7.00011770 37.07250810 183.02584371
Te -4.85549096 35.81782069 184.92665430
Sb -7.00395983 34.56538690 186.82600307
Te -7.00776717 37.03542586 188.49994651
Te -6.62286867 34.30556584 191.67914638
Sb -6.62195950 36.77833975 193.34742314
Te -4.48279327 35.52041742 195.25419368
Sb -6.62124305 34.27376234 197.17246383
Te -6.62043088 36.74634340 198.85537642
Te -6.57321092 39.23942136 201.58405032
Bi -8.77304372 37.95918571 203.22997994
Te -8.87504050 40.36958900 205.39098948
Bi -6.59275179 39.09274081 1.74424618
Te -8.68042724 37.87507204 3.63361519
Te -6.17171580 39.30799906 6.68297552
Bi -8.41412049 37.99769668 8.22911365
Te -8.58103134 40.36947892 10.45505424
Bi -6.28134850 39.20304767 12.36480393
Te -8.33559075 38.01587079 14.32417401
Te -6.21727696 38.92507164 17.37766815
Bi -8.46003531 37.60681861 18.91807089
Te -8.63843511 39.97506765 21.15054921
Bi -6.33142833 38.81522875 23.05267001
Te -8.38187592 37.62845437 25.01387808
Te -6.49952160 38.88424771 28.09059061
Bi -8.74865729 37.57299913 29.62887058
Te -8.93195136 39.93536191 31.86548236
Bi -6.62114955 38.77709340 33.76470811
Te -8.66844628 37.58631656 35.72756826
Te -6.79157951 38.84415253 38.80506506
Bi -9.03769713 37.52922246 40.34460162
Te -9.21786739 39.89301948 42.57927456
Bi -6.90989072 38.73180560 44.48185286
Te -8.96273226 37.54665386 46.44580316
Te -6.85155074 38.45354184 49.50138564
Bi -9.09223062 37.13205730 51.04207196
Te -9.26810648 39.50127638 53.27318171
Bi -6.96340456 38.33875980 55.17826903
Te -9.01870538 37.15722155 57.14106236
Te -6.90385038 38.06237262 60.19589788
Bi -9.14799069 36.74629909 61.73625518
Te -9.32650519 39.11470592 63.96894199
Bi -7.01958221 37.95452011 65.87153356
Te -9.06805275 36.76350555 67.83205455
Te -7.02015822 37.72753291 70.90590947
Bi -9.26881874 36.42133558 72.44929304
Te -9.44460411 38.78905804 74.68067551
Bi -7.14235856 37.62504557 76.58776992
Te -9.19159100 36.42873070 78.55008368
Te -6.75900715 37.81630691 81.58066766
Bi -8.97513039 36.52652334 83.18572633
Te -9.09276351 38.92770099 85.37459316
Bi -6.84547738 37.73193322 87.33950077
Te -8.93269641 36.51508106 89.24268679
Te -4.76953822 38.90403806 91.87593765
Bi -6.87558685 37.67651854 93.73580034
Te -6.82688739 40.17471770 95.76528105
Bi -4.73860972 38.88623278 97.87195229
Te -6.92271215 37.61458967 99.55507671
Te -9.02618456 36.38347554 102.26606928
Sb -9.03433409 38.85084528 103.95525197
Te -6.88655493 37.59800231 105.84912436
Sb -9.04044687 36.34263660 107.73645715
Te -9.04779205 38.81045812 109.42808248
Te -6.90094500 37.55213544 112.15150240
Sb -6.90483637 40.02197689 113.83894176
Te -4.76011187 38.76732254 115.74062937
Sb -6.90794735 37.51539002 117.63941978
Te -6.91202711 39.98512246 119.32689840
Te -9.06221409 38.72695069 122.04481982
Sb -9.06663196 41.19648521 123.73274162
Te -6.92153461 39.94205087 125.63360093
Sb -9.06992933 38.68980136 127.53137839
Te -9.07436622 41.15932469 129.21930092
Te -9.07383312 36.17926679 131.91526167
Sb -9.07830649 38.64876865 133.60323245
Te -6.93317019 37.39435746 135.50399996
Sb -9.08162904 36.14207160 137.40166131
Te -9.08610455 38.61157218 139.08963226
Te -6.94215388 37.35158582 141.81103883
Sb -6.94663556 39.82108291 143.49901662
Te -4.80149327 38.56667543 145.39977062
Sb -6.94996116 37.31438430 147.29741518
Te -6.95444250 39.78388140 148.98539325
Te -9.10409490 38.52601538 151.70369274
Sb -9.10857612 40.99551274 153.39167028
Te -6.96343401 39.74110505 155.29242518
Sb -9.11190147 38.48881430 157.19007011
Te -9.11638248 40.95831157 158.87804857
Te -9.11578808 35.97828847 161.57404602
Sb -9.12026997 38.44778527 163.26202671
Te -6.97512675 37.19337821 165.16277670
Sb -9.12359543 35.94108665 167.06042424
Te -9.12807800 38.41058306 168.74839242
Te -6.98412590 37.15059715 171.46992324
Sb -6.98860878 39.62009408 173.15785151
Te -4.84346586 38.36568661 175.05870425
Sb -6.99191305 37.11340498 176.95621351
Te -6.99640548 39.58289315 178.64457574
Te -9.14629653 38.32493301 181.35909458
Sb -9.15036439 40.79466513 183.04813826
Te -7.00573764 39.53997796 184.94894892
Sb -9.15420647 38.28754412 186.84829788
Te -9.15801384 40.75758337 188.52224107
Te -8.77311526 38.02772284 191.70144126
Sb -8.77220596 40.50049675 193.36971786
Te -6.63303993 39.24257445 195.27648844
Sb -8.77148947 37.99591952 197.19475883
Te -8.77067739 40.46850042 198.87767107
Te -8.72345758 42.96157874 201.60634473
Bi -10.92329035 41.68134293 203.25227436
Te -11.02528748 44.09174609 205.41328371
Bi -8.74299881 42.81489808 1.76654050
Te -10.83067400 41.59722954 3.65590984
Te -8.32196263 43.03015620 6.70526990
Bi -10.56436723 41.71985393 8.25140810
Te -10.73127813 44.09163605 10.47734840
Bi -8.43159538 42.92520511 12.38709844
Te -10.48583787 41.73802821 14.34646850
Te -8.36752368 42.64722857 17.39996240
Bi -10.61028192 41.32897572 18.94036532
Te -10.78868188 43.69722500 21.17284346
Bi -8.48167519 42.53738602 23.07496451
Te -10.53212298 41.35061168 25.03617271
Te -8.64976836 42.60640465 28.11288501
Bi -10.89890399 41.29515614 29.65116528
Te -11.08219822 43.65751912 31.88777675
Bi -8.77139635 42.49925055 33.78700243
Te -10.81869301 41.30847394 35.74986271
Te -8.94182597 42.56630922 38.82735964
Bi -11.18794367 41.25137928 40.36689637
Te -11.36811419 43.61517662 42.60156881
Bi -9.06013757 42.45396298 44.50414710
Te -11.11297908 41.26881154 46.46809772
Te -9.00179734 42.17569878 49.52368005
Bi -11.24247719 40.85421420 51.06436655
Te -11.41835319 43.22343340 53.29547599
Bi -9.11365121 42.06091719 55.20056372
Te -11.16895215 40.87937894 57.16335680
Te -9.05409702 41.78452967 60.21819249
Bi -11.29823727 40.46845613 61.75854960
Te -11.47675183 42.83686298 63.99123646
Bi -9.16982879 41.67667760 65.89382824
Te -11.21829943 40.48566301 67.85434918
Te -9.17040466 41.44968999 70.92820407
Bi -11.41906525 40.14349260 72.47158759
Te -11.59485068 42.51121495 74.70297009
Bi -9.29260505 41.34720288 76.61006479
Te -11.34183762 40.15088794 78.57237838
Te -8.90925370 41.53846397 81.60296231
Bi -11.12537703 40.24868056 83.20802075
Te -11.24300992 42.64985797 85.39688773
Bi -8.99572376 41.45409022 87.36179565
Te -11.08294311 40.23723830 89.26498133
Te -6.91978504 42.62619533 91.89823224
Bi -9.02583346 41.39867572 93.75809484
Te -8.97713416 43.89687508 95.78757539
Bi -6.88885645 42.60839004 97.89424673
Te -9.07295887 41.33674705 99.57737125
Te -11.17643121 40.10563264 102.28836379
Sb -11.18458092 42.57300260 103.97754629
Te -9.03680163 41.32015950 105.87141876
Sb -11.19069359 40.06479383 107.75875159
Te -11.19803879 42.53261554 109.45037681
Te -9.05119172 41.27429260 112.17379689
Sb -9.05508310 43.74413416 113.86123626
Te -6.91035866 42.48947971 115.76292381
Sb -9.05819402 41.23754729 117.66171416
Te -9.06227384 43.70727973 119.34919276
Te -11.21246085 42.44910776 122.06711428
Sb -11.21687883 44.91864229 123.75503590
Te -9.07178147 43.66420821 125.65589524
Sb -11.22017613 42.41195859 127.55367290
Te -11.22461317 44.88148212 129.24159522
Te -11.22407986 39.90142396 131.93755641
Sb -11.22855323 42.37092584 133.62552714
Te -9.08341701 41.11651475 135.52629466
Sb -11.23187563 39.86422873 137.42395597
Te -11.23635132 42.33372938 139.11192676
Te -9.09240052 41.07374294 141.83333336
Sb -9.09688225 43.54323998 143.52131123
Te -6.95173992 42.28883256 145.42206526
Sb -9.10020779 41.03654158 147.31970973
Te -9.10468935 43.50603867 149.00768761
Te -11.25434152 42.24817245 151.72598740
Sb -11.25882275 44.71767002 153.41396458
Te -9.11368065 43.46326227 155.31471959
Sb -11.26214805 42.21097137 157.21236462
Te -11.26662923 44.68046881 158.90034287
Te -11.26603467 39.70044561 161.59634067
Sb -11.27051667 42.16994243 163.28432132
Te -9.12537327 40.91553550 165.18507132
Sb -11.27384202 39.66324392 167.08271891
Te -11.27832475 42.13274031 168.77068686
Te -9.13437249 40.87275436 171.49221778
Sb -9.13885554 43.34225123 173.18014585
Te -6.99371257 42.08784382 175.08099870
Sb -9.14215971 40.83556195 176.97850807
Te -9.14665230 43.30505041 178.66687026
Te -11.29654319 42.04709010 181.38138913
Sb -11.30061123 44.51682249 183.07043260
Te -9.15598435 43.26213516 184.97124345
Sb -11.30445349 42.00970136 186.87059252
Te -11.30826060 44.47974084 188.54453556
Te -10.92336178 41.74987970 191.72373591
Sb -10.92245250 44.22265382 193.39201222
Te -8.78328666 42.96473147 195.29878306
Sb -10.92173635 41.71807653 197.21705346
Te -10.92092413 44.19065779 198.89996553
Te -10.87370428 46.68373560 201.62863898
Bi -13.07353733 45.40350026 203.27456870
Te -13.17553421 47.81390365 205.43557788
Bi -10.89324567 46.53705529 1.78883454
Te -12.98092112 45.31938694 3.67820401
Te -10.47220949 46.75231315 6.72756397
Bi -12.71461406 45.44201086 8.27370232
Te -12.88152512 47.81379332 10.49964246
Bi -10.58184258 46.64736231 12.40939265
Te -12.63608488 45.46018563 14.36876281
Te -10.51777067 46.36938555 17.42225653
Bi -12.76052882 45.05113269 18.96265993
Te -12.93892890 47.41938213 21.19513749
Bi -10.63192221 46.25954353 23.09725844
Te -12.68236987 45.07276906 25.05846656
Te -10.80001508 46.32856160 28.13517905
Bi -13.04915069 45.01731313 29.67345958
Te -13.23244516 47.37967651 31.91007057
Bi -10.92164326 46.22140806 33.80929634
Te -12.96893995 45.03063171 35.77215680
Te -11.09207286 46.28846616 38.84965375
Bi -13.33819046 44.97353656 40.38919050
Te -13.51836122 47.33733408 42.62386276
Bi -11.21038469 46.17612047 44.52644130
Te -13.26322605 44.99096896 46.49039179
Te -11.15204424 45.89785579 49.54597424
Bi -13.39272384 44.57637123 51.08666094
Te -13.56860011 46.94559087 53.31777002
Bi -11.26389813 45.78307456 55.22285788
Te -13.31919900 44.60153653 57.18565105
Te -11.20434390 45.50668655 60.24048678
Bi -13.44848402 44.19061325 61.78084434
Te -13.62699859 46.55902030 64.01353055
Bi -11.32007581 45.39883479 65.91612283
Te -13.36854650 44.20782051 67.87664371
Te -11.32065140 45.17184699 70.95049836
Bi -13.56931174 43.86564959 72.49388221
Te -13.74509736 46.23337259 74.72526433
Bi -11.44285196 45.06936024 76.63235899
Te -13.49208434 43.87304544 78.59467279
Te -11.05950048 45.26062121 81.62525656
Bi -13.27562350 43.97083797 83.23031553
Te -13.39325680 46.37201551 85.41918194
Bi -11.14597070 45.17624763 87.38408969
Te -13.23318994 43.95939568 89.28727555
Te -9.07003185 46.34835265 91.92052658
Bi -11.17608031 45.12083305 93.78038930
Te -11.12738084 47.61903240 95.80986983
Bi -9.03910323 46.33054735 97.91654121
Te -11.22320568 45.05890440 99.59966567
Te -13.32667805 43.82778999 102.31065819
Sb -13.33482777 46.29515996 103.99984064
Te -11.18704840 45.04231679 105.89371307
Sb -13.34094033 43.78695111 107.78104600
Te -13.34828572 46.25477284 109.47267118
Te -11.20143837 44.99644988 112.19609131
Sb -11.20532996 47.46629152 113.88353057
Te -9.06060543 46.21163710 115.78521809
Sb -11.20844083 44.95970459 117.68400864
Te -11.21252057 47.42943727 119.37148692
Te -13.36270765 46.17126511 122.08940867
Sb -13.36712563 48.64079983 123.77733015
Te -11.22202826 47.38636554 125.67818945
Sb -13.37042294 46.13411595 127.57596711
Te -13.37486001 48.60363950 129.26388946
Te -13.37432653 43.62358116 131.95985097
Sb -13.37880003 46.09308308 133.64782147
Te -11.23366383 44.83867199 135.54858913
Sb -13.38212247 43.58638603 137.44625056
Te -13.38659811 46.05588690 139.13422120
Te -11.24264724 44.79590017 141.85562779
Sb -11.24712901 47.26539729 143.54360560
Te -9.10198670 46.01098963 145.44435960
Sb -11.25045474 44.75869867 147.34200396
Te -11.25493606 47.22819603 149.02998175
Te -13.40458829 45.97032984 151.74828166
Sb -13.40906954 48.43982743 153.43625885
Te -11.26392757 47.18541951 155.33701391
Sb -13.41239483 45.93312867 157.23465911
Te -13.41687619 48.40262625 158.92263717
Te -13.41628134 43.42260277 161.61863518
Sb -13.42076342 45.89209968 163.30661567
Te -11.27562004 44.63769281 165.20736573
Sb -13.42408874 43.38540098 167.10501326
Te -13.42857174 45.85489761 168.79298099
Te -11.28461947 44.59491160 171.51451237
Sb -11.28910234 47.06440859 173.20244040
Te -9.14395930 45.81000089 175.10329292
Sb -11.29240649 44.55771929 177.00080243
Te -11.29689909 47.02720773 178.68916454
Te -13.44679004 45.76924726 181.40368336
Sb -13.45085812 48.23897989 183.09272676
Te -11.30623116 46.98429251 184.99353761
Sb -13.45470023 45.73185881 186.89288692
Te -13.45850762 48.20189825 188.56682960
Te -13.07360852 45.47203682 191.74603041
Sb -13.07269945 47.94481093 193.41430651
Te -10.93353356 46.68688857 195.32107739
Sb -13.07198312 45.44023372 197.23934779
Te -13.07117105 47.91281521 198.92225962
Te -13.02395136 50.40589312 201.65093314
Bi -15.22378428 49.12565741 203.29686264
Te -15.32578135 51.53606091 205.45787186
Bi -13.04349266 50.25921280 1.81112861
Te -15.13116787 49.04154433 3.70049792
Te -12.62245650 50.47447045 6.74985771
Bi -14.86486102 49.16416811 8.29599607
Te -15.03177224 51.53595079 10.52193612
Bi -12.73208973 50.36951988 12.43168639
Te -14.78633206 49.18234313 14.39105665
Te -12.66801767 50.09154280 17.44455026
Bi -14.91077584 48.77328976 18.98495355
Te -15.08917568 51.14153946 21.21743087
Bi -12.78216925 49.98170084 23.11955215
Te -14.83261711 48.79492677 25.08076042
Te -12.95026197 50.05071890 28.15747272
Bi -15.19939749 48.73947038 29.69575308
Te -15.38269244 51.10183376 31.93236411
Bi -13.07189034 49.94356565 33.83159004
Te -15.11918716 48.75278918 35.79445043
Te -13.24231979 50.01062350 38.87194728
Bi -15.48843740 48.69569371 40.41148407
Te -15.66860820 51.05949126 42.64615622
Bi -13.36063172 49.89827802 44.54873524
Te -15.41347315 48.71312659 46.51268568
Te -13.30229116 49.62001303 49.56826814
Bi -15.54297084 48.29852840 51.10895464
Te -15.71884707 50.66774821 53.34006364
Bi -13.41414519 49.50523207 55.24515168
Te -15.46944623 48.32369428 57.20794484
Te -13.35459081 49.22884359 60.26278064
Bi -15.59873097 47.91277034 61.80313833
Te -15.77724542 50.28117773 64.03582421
Bi -13.47032266 49.12099233 65.93841672
Te -15.51879356 47.92997834 67.89893752
Te -13.47089802 48.89400412 70.97279243
Bi -15.71955848 47.58780677 72.51617629
Te -15.89534446 49.95552979 74.74755820
Bi -13.59309870 48.79151785 76.65465302
Te -15.64233103 47.59520293 78.61696679
Te -13.20974731 48.98277850 81.64755067
Bi -15.42587050 47.69299516 83.25260963
Te -15.54350386 50.09417300 85.44147595
Bi -13.29621766 48.89840523 87.40638388
Te -15.38343676 47.68155315 89.30956974
Te -11.22027854 50.07051004 91.94282078
Bi -13.32632724 48.84299055 93.80268343
Te -13.27762780 51.34118989 95.83216391
Bi -11.18935011 50.05270492 97.93883528
Te -13.37345269 48.78106207 99.62195991
Te -15.47692480 47.54994730 102.33295249
Sb -15.48507453 50.01731742 104.02213489
Te -13.33729532 48.76447434 105.91600731
Sb -15.49118725 47.50910846 107.80334028
Te -15.49853268 49.97693034 109.49496530
Te -13.35168525 48.71860723 112.21838557
Sb -13.35557690 51.18844881 113.90582454
Te -11.21085240 49.93379448 115.80751232
Sb -13.35868772 48.68186188 117.70630289
Te -13.36276774 51.15159475 119.39378105
Te -15.51295469 49.89342259 122.11170287
Sb 14.58608144 0.25275634 123.48750144
Te -13.37227524 51.10852312 125.70048353
Sb -15.52066984 49.85627335 127.59826118
Te 14.57834708 0.21559604 128.97406055
Te -15.52457338 47.34573821 131.98214539
Sb -15.52904697 49.81524050 133.67011565
Te -13.38391076 48.56082946 135.57088336
Sb -15.53236931 47.30854341 137.46854497
Te -15.53684513 49.77804433 139.15651543
Te -13.39289416 48.51805748 141.87792209
Sb -13.39737611 50.98755487 143.56589961
Te -11.25223372 49.73314711 145.46665362
Sb -13.40070153 48.48085602 147.36429826
Te -13.40518329 50.95035373 149.05227597
Te -15.55483526 49.69248704 151.77057589
Sb 14.54413744 0.05178402 153.14643027
Te -13.41417456 50.90757691 155.35930812
Sb -15.56264184 49.65528612 157.25695313
Te -15.56712312 52.12478365 158.94493129
Te -15.56652799 47.14476008 161.64092956
Sb -15.57101034 49.61425693 163.32891008
Te -13.42586696 48.35985004 165.22966005
Sb -15.57433565 47.10755844 167.12730744
Te -15.57881864 49.57705491 168.81527532
Te -13.43486615 48.31706875 171.53680680
Sb -13.43934924 50.78656598 173.22473443
Te -11.29420620 49.53215850 175.12558717
Sb -13.44265332 48.27987663 177.02309665
Te -13.44714604 50.74936533 178.71145861
Te -15.59703688 49.49140468 181.42597741
Sb -15.60110517 51.96113729 183.11502064
Te -13.45647824 50.70645008 185.01583153
Sb -15.60494713 49.45401636 186.91518099
Te -15.60875480 51.92405599 188.58912340
Te -15.22385549 49.19419384 191.76832446
Sb -15.22294640 51.66696847 193.43660042
Te -13.08378052 50.40904614 195.34337134
Sb -15.22223006 49.16239109 197.26164189
Te -15.22141811 51.63497271 198.94455347
Te 19.09303115 1.94117324 201.32561044
Bi 16.99624002 0.71858346 203.20820196
Te 17.08496411 3.24005084 205.20364053
Bi 19.16779777 1.84666554 1.75063934
Te 16.95979104 0.56213973 3.37360736
Te 19.38317885 1.93998077 6.39875872
Bi 17.33050398 0.74853730 8.35941148
Te 17.47799213 3.30536671 10.29216880
Bi 19.45789108 1.95625101 12.49723861
Te 17.21646518 0.64060712 14.04205063
Te 19.32776741 1.54398602 17.09680437
Bi 17.27418856 0.35901019 19.05994487
Te 17.43132155 2.91955752 20.98552666
Bi 19.40202058 1.56152884 23.19753471
Te 17.15634412 0.24652244 24.73771619
Te 19.03291762 1.50432661 27.81504065
Bi 16.98560049 0.31352827 29.77785176
Te 17.14614508 2.87741612 31.69940939
Bi 19.11309227 1.51762373 33.91375914
Te 16.86392757 0.20634960 35.45198400
Te 18.74574643 1.46200832 38.52872724
Bi 16.69574339 0.27515954 40.49049801
Te 16.85307180 2.83776026 42.41447619
Bi 18.82422783 1.48336777 44.62529891
Te 16.58071782 0.16527236 46.16471674
Te 18.69665265 1.07023215 49.21944982
Bi -13.46213143 51.99893848 51.49447440
Te 16.79579409 2.44836832 53.10969598
Bi 18.77014439 1.09538813 55.31849506
Te -13.57399145 51.88417113 57.17137919
Te 18.63952841 0.68324036 59.91524740
Bi -13.51617127 51.60629552 62.19045486
Te 16.74460290 2.05620523 63.80371335
Bi 18.71514487 0.69896634 66.01531021
Te -13.63539905 51.49755914 67.86841973
Te 18.51741749 0.35815917 70.62968891
Bi -13.63261316 51.27206267 72.90025526
Te 16.62393741 1.72090051 74.51630173
Bi 18.60269960 0.36875809 76.72275203
Te -13.74704418 51.17323613 78.57895208
Te 18.86391104 0.49273180 81.31208629
Bi -13.31836572 51.39096246 83.53068664
Te 16.88596950 1.80939672 85.19792293
Bi 18.92728881 0.49353470 87.34593455
Te -13.38586854 51.31763183 89.27603582
Te 21.11592802 1.73170639 91.71166715
Bi 18.92564009 0.45661284 93.37215463
Te 18.86718243 2.89225923 95.51119769
Bi 21.06744669 1.66904513 97.52198704
Te 18.95585124 0.43838591 99.36919064
Te -13.34505732 51.26343475 102.34278970
Sb 16.75764337 1.62491100 103.71436143
Te 18.90019408 0.36896415 105.62226414
Sb -13.34629610 51.22995692 107.84179160
Te 16.75555613 1.59093950 109.21385856
Te 18.89664191 0.32931097 111.93315670
Sb 18.89156996 2.79846403 113.62168135
Te 21.03713031 1.54430391 115.52149508
Sb 18.88803155 0.29165489 117.41800332
Te 18.88314953 2.76091811 119.10647653
Te 16.73402977 1.50335822 121.82516347
Sb 16.72948564 3.97281921 123.51319571
Te 18.87467171 2.71843768 125.41384739
Sb 16.72613238 1.46610607 127.31136272
Te 16.72160761 3.93557803 128.99939468
Te -13.38119184 51.06579001 132.00756905
Sb 16.71777322 1.42508234 133.38343027
Te 18.86292052 0.17067766 135.28417321
Sb -13.38900884 51.02858298 137.49392711
Te 16.70995878 1.38787708 138.86978783
Te 18.85391951 0.12789575 141.59119996
Sb 18.84943900 2.59739406 143.27917623
Te 20.99458026 1.34298569 145.17993279
Sb 18.84611451 0.09069549 147.07758072
Te 18.84163366 2.56019355 148.76555707
Te 16.69198006 1.30232603 151.48385588
Sb 16.68749902 3.77182393 153.17183257
Te 18.83264072 2.51741596 155.07258818
Sb 16.68417398 1.26512532 156.97023457
Te 16.67969316 3.73462325 158.65821219
Te -13.42316875 50.86479865 161.66633149
Sb 16.67580552 1.22409648 163.04218618
Te -11.28250848 52.07988867 165.25506197
Sb -13.43097365 50.82759848 167.15271732
Te 16.66800125 1.18689655 168.52855781
Te -11.29149501 52.03711291 171.56222937
Sb 18.80748005 2.39641124 172.93803439
Te 20.95262034 1.14200152 174.83889550
Sb -11.29931951 51.99990536 177.04847260
Te 18.79966330 2.35920619 178.42466682
Te 16.65024677 1.10148031 181.13909028
Sb 16.64535346 3.57072210 182.82896529
Te 18.79100346 2.31660757 184.72878671
Sb 16.64253032 1.06433810 186.62766264
Te 16.63739301 3.53365513 188.30288591
Te 17.03566775 0.81123520 191.48983975
Sb 17.02584744 3.27783981 193.17082758
Te 19.17697728 2.02684274 195.06712639
Sb 17.01849572 0.76892591 196.94483422
Te 17.00897173 3.23550068 198.63467643
Te 16.94278441 5.66333091 201.34790427
Bi 14.84599300 4.44074108 203.23049552
Te 14.93471736 6.96220791 205.22593462
Bi 17.01755095 5.56882303 1.77293377
Te 14.80954403 4.28429709 3.39590131
Te 17.23293147 5.66213830 6.42105232
Bi 15.18025682 4.47069486 8.38170520
Te 15.32774544 7.02752416 10.31446272
Bi 17.30764405 5.67840825 12.51953246
Te 15.06621824 4.36276421 14.06434431
Te 17.17751996 5.26614386 17.11909794
Bi 15.12394120 4.08116756 19.08223865
Te 15.28107448 6.64171484 21.00782051
Bi 17.25177359 5.28368606 23.21982820
Te 15.00609723 3.96867930 24.76000989
Te 16.88267045 5.22648447 27.83733402
Bi 14.83535324 4.03568586 29.80014498
Te 14.99589817 6.59957358 31.72170319
Bi 16.96284523 5.23978114 33.93605285
Te 14.71368040 3.92850678 35.47427757
Te 16.59549917 5.18416609 38.55102062
Bi 14.54549610 3.99731713 40.51279092
Te 14.70282490 6.55991756 42.43676990
Bi 16.67398086 5.20552512 44.64759273
Te 14.43047076 3.88742947 46.18701045
Te 16.54640550 4.79238989 49.24174318
Bi 14.49107556 3.61089519 51.20464489
Te 14.64554704 6.17052561 53.13198972
Bi 16.61989743 4.81754550 55.34078877
Te 14.37921563 3.49612742 56.88154985
Te 16.48928126 4.40539808 59.93754091
Bi 14.43703550 3.21825206 61.90062548
Te 14.59435594 5.77836261 63.82600699
Bi 16.56489777 4.42112360 66.03760410
Te 14.31780800 3.10951563 67.57859040
Te 16.36717036 4.08031652 70.65198249
Bi 14.32059373 2.88401933 72.61042615
Te 14.47369047 5.44305804 74.53859538
Bi 16.45245246 4.09091539 76.74504592
Te 14.20616260 2.78519262 78.28912315
Te 16.71366386 4.21488921 81.33438022
Bi 14.63484112 3.00291912 83.24085776
Te 14.73572267 5.53155408 85.22021701
Bi 16.77704178 4.21569217 87.36822855
Te 14.56733851 2.92958836 88.98620695
Te 18.96568100 5.45386392 91.73396130
Bi 16.77539308 4.17877039 93.39444883
Te 16.71693568 6.61441680 95.53349181
Bi 18.91719979 5.39120254 97.54428120
Te 16.80560430 4.16054350 99.39148487
Te 14.60814978 2.87539134 102.05296088
Sb 14.60739646 5.34706841 103.73665558
Te 16.74994707 4.09112153 105.64455833
Sb 14.60691107 2.84191339 107.55196274
Te 14.60530938 5.31309669 109.23615267
Te 16.74639499 4.05146833 111.95545076
Sb 16.74132307 6.52062149 113.64397568
Te 18.88688339 5.26646123 115.54378927
Sb 16.73778448 4.01381236 117.44029749
Te 16.73290263 6.48307554 119.12877082
Te 14.58378285 5.22551565 121.84745756
Sb 14.57923883 7.69497663 123.53548999
Te 16.72442479 6.44059502 125.43614176
Sb 14.57588543 5.18826352 127.33365695
Te 14.57136066 7.65773536 129.02168891
Te 14.57201518 2.67774628 131.71774034
Sb 14.56752639 5.14723972 133.40572436
Te 16.71267347 3.89283512 135.30646731
Sb 14.56419812 2.64053968 137.20409831
Te 14.55971190 5.11003448 138.89208190
Te 16.70367248 3.85005322 141.61349434
Sb 16.69919221 6.31955151 143.30147046
Te 18.84433338 5.06514314 145.20222703
Sb 16.69586750 3.81285269 147.09987475
Te 16.69138682 6.28235077 148.78785129
Te 14.54173309 5.02448354 151.50614993
Sb 14.53725205 7.49398130 153.19412671
Te 16.68239377 6.23957336 155.09488247
Sb 14.53392720 4.98728267 156.99252896
Te 14.52944631 7.45678060 158.68050654
Te 14.53003821 2.47675524 161.37650271
Sb 14.52555851 4.94625400 163.06448022
Te 16.67069855 3.69184525 164.96523343
Sb 14.52223355 2.43955495 166.86288863
Te 14.51775433 4.90905399 168.55085200
Te 16.66171196 3.64906962 171.27240072
Sb 16.65723309 6.11856870 172.96032819
Te 18.80237335 4.86415906 174.86118964
Sb 16.65388762 3.61186193 176.75864384
Te 16.64941617 6.08136351 178.44696106
Te 14.49999983 4.82363798 181.16138421
Sb 14.49510657 7.29287944 182.85125951
Te 16.64075659 6.03876508 184.75108058
Sb 14.49228343 4.78649553 186.64995642
Te 14.48714618 7.25581217 188.32518001
Te 14.88542056 4.53339278 191.51213351
Sb 14.87560065 6.99999735 193.19312140
Te 17.02673015 5.74900036 195.08942042
Sb 14.86824872 4.49108350 196.96712808
Te 14.85872481 6.95765802 198.65697057
Te 14.79253738 9.38548821 201.37019851
Bi 12.69574599 8.16289839 203.25278993
Te 12.78447054 10.68436542 205.24822881
Bi 14.86730421 9.29098017 1.79522759
Te 12.65929741 8.00645434 3.41819548
Te 15.08268472 9.38429587 6.44334663
Bi 13.03000989 8.19285220 8.40399920
Te 13.17749882 10.74968129 10.33675696
Bi 15.15739732 9.40056516 12.54182669
Te 12.91597145 8.08492119 14.08663828
Te 15.02727296 8.98830167 17.14139206
Bi 12.97369437 7.80332506 19.10453254
Te 13.13082761 10.36387210 21.03011462
Bi 15.10152676 9.00584327 23.24212229
Te 12.85585039 7.69083672 24.78230389
Te 14.73242365 8.94864204 27.85962805
Bi 12.68510628 7.75784324 29.82243881
Te 12.84565154 10.32173082 31.74399734
Bi 14.81259845 8.96193813 33.95834697
Te 12.56343362 7.65066361 35.49657155
Te 14.44525217 8.90632364 38.57331464
Bi 12.39524911 7.71947448 40.53508494
Te 12.55257797 10.28207482 42.45906392
Bi 14.52373384 8.92768216 44.66988660
Te 12.28022397 7.60958679 46.20930437
Te 14.39615853 8.51454755 49.26403694
Bi 12.34082858 7.33305264 51.22693874
Te 12.49530024 9.89268296 53.15428367
Bi 14.46965059 8.53970278 55.36308264
Te 12.22896873 7.21828473 56.90384369
Te 14.33903409 8.12755575 59.95983493
Bi 12.28678861 6.94040953 61.92291956
Te 12.44410894 9.50051995 63.84830120
Bi 14.41465074 8.14328099 66.05989809
Te 12.16756099 6.83167277 67.60088428
Te 14.21692319 7.80247406 70.67427647
Bi 12.17034658 6.60617661 72.63271997
Te 12.32344353 9.16521523 74.56088947
Bi 14.30220557 7.81307252 76.76733986
Te 12.05591575 6.50734995 78.31141705
Te 14.56341685 7.93704689 81.35667433
Bi 12.48459438 6.72507657 83.26315191
Te 12.58547593 9.25371147 85.24251131
Bi 14.62679501 7.93784948 87.39052282
Te 12.41709158 6.65174576 89.00850109
Te 16.81543427 9.17602128 91.75625559
Bi 14.62514615 7.90092770 93.41674297
Te 14.56668881 10.33657386 95.55578622
Bi 16.76695288 9.11335975 97.56657575
Te 14.65535741 7.88270059 99.41377921
Te 12.45790278 6.59754876 102.07525521
Sb 12.45714951 9.06922573 103.75894997
Te 14.59970024 7.81327891 105.66685273
Sb 12.45666416 6.56407083 107.57425725
Te 12.45506248 9.03525405 109.25844712
Te 14.59614804 7.77362572 111.97774501
Sb 14.59107629 10.24277874 113.66626998
Te 16.73663660 8.98861861 115.56608367
Sb 14.58753772 7.73596973 117.46259185
Te 14.58265592 10.20523268 119.15106532
Te 12.43353588 8.94767307 121.86975183
Sb 12.42899185 11.41713396 123.55778434
Te 14.57417780 10.16275232 125.45843606
Sb 12.42563862 8.91042067 127.35595122
Te 12.42111405 11.37989253 129.04398356
Te 12.42176816 6.39990385 131.74003446
Sb 12.41727944 8.86939705 133.42801840
Te 14.56242655 7.61499251 135.32876159
Sb 12.41395127 6.36269701 137.22639243
Te 12.40946520 8.83219171 138.91437620
Te 14.55342557 7.57221060 141.63578842
Sb 14.54894546 10.04170880 143.32376492
Te 16.69408656 8.78730057 145.22452140
Sb 14.54562066 7.53501006 147.12216910
Te 14.54114016 10.00450791 148.81014582
Te 12.39148609 8.74664072 151.52844421
Sb 12.38700535 11.21613848 153.21642122
Te 14.53214689 9.96173057 155.11717670
Sb 12.38368027 8.70944004 157.01482330
Te 12.37919956 11.17893787 158.70280095
Te 12.37979120 6.19891276 161.39879688
Sb 12.37531154 8.66841124 163.08677449
Te 14.52045181 7.41400265 164.98752756
Sb 12.37198651 6.16171240 166.88518271
Te 12.36750734 8.63121119 168.57314635
Te 14.51146513 7.37122705 171.29469474
Sb 14.50698627 9.84072609 172.98262277
Te 16.65212650 8.58631632 174.88348386
Sb 14.50364074 7.33401936 176.78093799
Te 14.49916957 9.80352079 178.46925535
Te 12.34975296 8.54579531 181.18367826
Sb 12.34485978 11.01503660 182.87355377
Te 14.49050982 9.76092227 184.77337490
Sb 12.34203663 8.50865283 186.67225056
Te 12.33689962 10.97796941 188.34747452
Te 12.73517367 8.25555040 191.53442742
Sb 12.72535370 10.72215474 193.21541561
Te 14.87648326 9.47115766 195.11171458
Sb 12.71800176 8.21324080 196.98942217
Te 12.70847795 10.67981531 198.67926481
Te 12.64229072 13.10764577 201.39249281
Bi 10.54549918 11.88505580 203.27508403
Te 10.63422390 14.40652248 205.27052333
Bi 12.71705732 13.01313743 1.81752217
Te 10.50905076 11.72861153 3.44048979
Te 12.93243787 13.10645341 6.46564118
Bi 10.87976325 11.91500956 8.42629379
Te 11.02725207 14.47183846 10.35905160
Bi 13.00715085 13.12272230 12.56412117
Te 10.76572496 11.80707820 14.10893278
Te 12.87702615 12.71045921 17.16368674
Bi 10.82344768 11.52548261 19.12682714
Te 10.98058117 14.08602936 21.05240930
Bi 12.95128018 12.72800024 23.26441694
Te 10.70560376 11.41299351 24.80459823
Te 12.58217663 12.67079954 27.88192254
Bi 10.53485946 11.48000065 29.84473332
Te 10.69540468 14.04388790 31.76629203
Bi 12.66235183 12.68409503 33.98064133
Te 10.41318699 11.37282057 35.51886600
Te 12.29500524 12.62848115 38.59560889
Bi 10.24500227 11.44163193 40.55737899
Te 10.40233133 14.00423175 42.48135855
Bi 12.37348709 12.64983926 44.69218109
Te 10.12997692 11.33174353 46.23159852
Te 12.24591162 12.23670505 49.28633121
Bi 10.19058170 11.05521010 51.24923270
Te 10.34505360 13.61484016 53.17657816
Bi 12.31940398 12.26185972 55.38537695
Te 10.07872200 10.94044162 56.92613793
Te 12.18878716 11.84971306 59.98212915
Bi 10.13654166 10.66256687 61.94521367
Te 10.29386219 13.22267704 63.87059551
Bi 12.26440382 11.86543803 66.08219275
Te 10.01731400 10.55382959 67.62317843
Te 12.06667617 11.52463146 70.69657055
Bi 10.02009959 10.32833401 72.65501424
Te 10.17319677 12.88737241 74.58318381
Bi 12.15195860 11.53522968 76.78963429
Te 9.90566879 10.22950673 78.33371131
Te 12.41317013 11.65920408 81.37896877
Bi 10.33434738 10.44723386 83.28544632
Te 10.43522928 12.97586873 85.26480583
Bi 12.47654829 11.66000668 87.41281723
Te 10.26684458 10.37390291 89.03079546
Te 14.66518759 12.89817853 91.77855011
Bi 12.47489943 11.62308486 93.43903746
Te 12.41644207 14.05873102 95.57808084
Bi 14.61670618 12.83551680 97.58887023
Te 12.50511084 11.60485779 99.43607387
Te 10.30765590 10.31970612 102.09754964
Sb 10.30690280 12.79138303 103.78124450
Te 12.44945352 11.53543618 105.68914719
Sb 10.30641743 10.28622780 107.59655149
Te 10.30481585 12.75741104 109.28074161
Te 12.44590127 11.49578305 112.00003951
Sb 12.44082960 13.96493584 113.68856470
Te 14.58638999 12.71077571 115.58837831
Sb 12.43729086 11.45812690 117.48488632
Te 12.43240924 13.92738980 119.17335991
Te 10.28328925 12.66983035 121.89204636
Sb 10.27874522 15.13929109 123.58007902
Te 12.42393124 13.88490951 125.48073073
Sb 10.27539196 12.63257795 127.37824597
Te 10.27086729 15.10204958 129.06627829
Te 10.27152129 10.12206110 131.76232861
Sb 10.26703278 12.59155438 133.45031282
Te 12.41217984 11.33714971 135.35105584
Sb 10.26370453 10.08485428 137.24868685
Te 10.25921856 12.55434892 138.93667072
Te 12.40317883 11.29436778 141.65808290
Sb 12.39869875 13.76386602 143.34605941
Te 14.54383985 12.50945765 145.24681595
Sb 12.39537396 11.25716735 147.14446374
Te 12.39089348 13.72666519 148.83244056
Te 10.24123943 12.46879800 151.55073862
Sb 10.23675867 14.93829562 153.23871574
Te 12.38190014 13.68388764 155.13947134
Sb 10.23343341 12.43159731 157.03711771
Te 10.22895295 14.90109507 158.72509571
Te 10.22954460 9.92107011 161.42109107
Sb 10.22506497 12.39056838 163.10906890
Te 12.37020506 11.13615977 165.00982196
Sb 10.22173954 9.88386969 166.90747698
Te 10.21726065 12.35336844 168.59544085
Te 12.36121822 11.09338449 171.31698910
Sb 12.35673931 13.56288343 173.00491702
Te 14.50187959 12.30847361 174.90577828
Sb 12.35339402 11.05617652 176.80323262
Te 12.34892274 13.52567792 178.49154991
Te 10.19950609 12.26795267 181.20597260
Sb 10.19461318 14.73719393 182.89584813
Te 12.34026319 13.48307937 184.79566938
Sb 10.19178993 12.23080989 186.69454503
Te 10.18665295 14.70012629 188.36976905
Te 10.58492672 11.97770786 191.55672171
Sb 10.57510691 14.44431219 193.23771003
Te 12.72623646 13.19331499 195.13400888
Sb 10.56775493 11.93539813 197.01171633
Te 10.55823116 14.40197249 198.70155922
Te 10.49204398 16.82980284 201.41478746
Bi 8.39525257 15.60721285 203.29737852
Te 8.48397725 18.12867949 205.29281783
Bi 10.56681083 16.73529456 1.83981658
Te 8.35880409 15.45076867 3.46278449
Te 10.78219146 16.82861078 6.48793574
Bi 8.72951682 15.63716680 8.44858846
Te 8.87700584 18.19399569 10.38134657
Bi 10.85690445 16.84487932 12.58641595
Te 8.61547841 15.52923525 14.13122743
Te 10.72677950 16.43261657 17.18598146
Bi 8.67320109 15.24763973 19.14912169
Te 8.83033457 17.80818654 21.07470420
Bi 10.80103369 16.45015744 23.28671163
Te 8.55535727 15.13515062 24.82689298
Te 10.43192997 16.39295702 27.90421716
Bi 8.38461274 15.20215800 29.86702807
Te 8.54515833 17.76604502 31.78858698
Bi 10.51210540 16.40625205 34.00293634
Te 8.26294039 15.09497752 35.54116080
Te 10.14475845 16.35063853 38.61790364
Bi 8.09475552 15.16378914 40.57967376
Te 8.25208480 17.72638875 42.50365330
Bi 10.22324057 16.37199604 44.71447578
Te 7.97973033 15.05390033 46.25389310
Te 10.09566484 15.95886243 49.30862568
Bi 8.04033500 14.77736729 51.27152725
Te 8.19480732 17.33699718 53.19887286
Bi 10.16915733 15.98401666 55.40767198
Te 7.92847522 14.66259848 56.94843243
Te 10.03854022 15.57187038 60.00442390
Bi 7.98629472 14.38472414 61.96750848
Te 8.14361546 16.94483434 63.89289039
Bi 10.11415729 15.58759492 66.10448723
Te 7.86706723 14.27598646 67.64547300
Te 9.91642924 15.24678879 70.71886499
Bi 7.86985263 14.05049138 72.67730879
Te 8.02294995 16.60952966 74.60547850
Bi 10.00171180 15.25738670 76.81192896
Te 7.75542195 13.95166378 78.35600588
Te 10.26292336 15.38136124 81.40126338
Bi 8.18410065 14.16939099 83.30774103
Te 8.28498251 16.69802584 85.28710039
Bi 10.32630151 15.38216389 87.43511183
Te 8.11659818 14.09606006 89.05309002
Te 12.51494085 16.62033563 91.80084477
Bi 10.32465289 15.34524196 93.46133211
Te 10.26619536 17.78088809 95.60037548
Bi 12.46645964 16.55767398 97.61116474
Te 10.35486426 15.32701503 99.45836853
Te 8.15740913 14.04186329 102.11984412
Sb 8.15665617 16.51354009 103.80353913
Te 10.29920681 15.25759331 105.71144179
Sb 8.15617065 14.00838506 107.61884620
Te 8.15456922 16.47956829 109.30303635
Te 10.29565472 15.21794027 112.02233403
Sb 10.29058308 17.68709305 113.71085931
Te 12.43614324 16.43293278 115.61067282
Sb 10.28704430 15.18028404 117.50718094
Te 10.28216262 17.64954702 119.19565468
Te 8.13304246 16.39198745 121.91434104
Sb 8.12849859 18.86144820 123.60237372
Te 10.27368466 17.60706658 125.50302540
Sb 8.12514522 16.35473513 127.40054051
Te 8.12062061 18.82420671 129.08857292
Te 8.12127453 13.84421831 131.78462309
Sb 8.11678614 16.31371156 133.47260744
Te 10.26193323 15.05930691 135.37335043
Sb 8.11345788 13.80701139 137.27098133
Te 8.10897198 16.27650583 138.95896526
Te 10.25293215 15.01652516 141.68037758
Sb 10.24845214 17.48602305 143.36835413
Te 12.39359333 16.23161485 145.26911055
Sb 10.24512734 14.97932452 147.16675831
Te 10.24064687 17.44882230 148.85473520
Te 8.09099277 16.19095521 151.57303323
Sb 8.08651208 18.66045278 153.26101031
Te 10.23165347 17.40604482 155.16176585
Sb 8.08318681 16.15375437 157.05941240
Te 8.07870632 18.62325216 158.74739011
Te 8.07929772 13.64322742 161.44338549
Sb 8.07481820 16.11272567 163.13136357
Te 10.21995843 14.85831688 165.03211645
Sb 8.07149286 13.60602698 166.92977166
Te 8.06701393 16.07552574 168.61773540
Te 10.21097149 14.81554180 171.33928346
Sb 10.20649267 17.28504051 173.02721174
Te 12.35163303 16.03063078 174.92807287
Sb 10.20314730 14.77833365 176.82552710
Te 10.19867614 17.24783502 178.51384458
Te 8.04925951 15.99010982 181.22826713
Sb 8.04436655 18.45935083 182.91814290
Te 10.19001657 17.20523655 184.81796403
Sb 8.04154332 15.95296695 186.71683962
Te 8.03640639 18.42228333 188.39206362
Te 8.43468007 15.69986513 191.57901644
Sb 8.42486032 18.16646945 193.26000463
Te 10.57598995 16.91547224 195.15630340
Sb 8.41750821 15.65755545 197.03401089
Te 8.40798476 18.12412973 198.72385394
Te 8.34179769 20.55196017 201.43708212
Bi 6.24500606 19.32937025 203.31967315
Te 6.33373075 21.85083663 205.31511285
Bi 8.41656418 20.45745148 1.86211165
Te 6.20855750 19.17292567 3.48507925
Te 8.63194496 20.55076787 6.51023072
Bi 6.57927031 19.35932393 8.47088338
Te 6.72675917 21.91615275 10.40364162
Bi 8.70665798 20.56703635 12.60871099
Te 6.46523211 19.25139225 14.15352238
Te 8.57653310 20.15477389 17.20827642
Bi 6.52295460 18.96979716 19.17141667
Te 6.68008812 21.53034369 21.09699937
Bi 8.65078732 20.17231454 23.30900676
Te 6.40511085 18.85730763 24.84918792
Te 8.28168344 20.11511434 27.92651228
Bi 6.23436630 18.92431511 29.88932290
Te 6.39491190 21.48820214 31.81088214
Bi 8.36185892 20.12840895 34.02523147
Te 6.11269394 18.81713449 35.56345582
Te 7.99451194 20.07279593 38.64019857
Bi 5.94450897 18.88594650 40.60196878
Te 6.10183827 21.44854608 42.52594849
Bi 8.07299419 20.09415298 44.73677069
Te 5.82948385 18.77605724 46.27618818
Te 7.94541826 19.68101975 49.33092086
Bi 5.89008856 18.49952446 51.29382226
Te 6.04456070 21.05915421 53.22116802
Bi 8.01891088 19.70617356 55.42996696
Te 5.77822867 18.38475531 56.97072736
Te 7.88829339 19.29402768 60.02671891
Bi 5.83604805 18.10688121 61.98980331
Te 5.99336902 20.66699134 63.91518539
Bi 7.96391066 19.30975195 66.12678224
Te 5.71682071 17.99814320 67.66776782
Te 7.76618252 18.96894607 70.74115986
Bi 5.71960588 17.77264845 72.69960362
Te 5.87270353 20.33168658 74.62777338
Bi 7.85146521 18.97954362 76.83422366
Te 5.60517533 17.67382077 78.37830048
Te 8.11267685 19.10351830 81.42355810
Bi 6.03385392 17.89154825 83.33003558
Te 6.13473584 20.42018289 85.30939523
Bi 8.17605499 19.10432094 87.45740662
Te 5.96635163 17.81821704 89.07538482
Te 10.36469414 20.34249252 91.82313937
Bi 8.17440621 19.06739905 93.48362660
Te 8.11594873 21.50304516 95.62267015
Bi 10.31621290 20.27983100 97.63345949
Te 8.20461756 19.04917194 99.48066321
Te 6.00716258 17.76402042 102.14213878
Sb 6.00640946 20.23569718 103.82583389
Te 8.14896028 18.97975035 105.73373645
Sb 6.00592396 17.73054234 107.64114094
Te 6.00432268 20.20172526 109.32533103
Te 8.14540801 18.94009728 112.04462872
Sb 8.14033635 21.40925016 113.73315393
Te 10.28589656 20.15509002 115.63296760
Sb 8.13679758 18.90244104 117.52947574
Te 8.13191603 21.37170396 119.21794936
Te 5.98279588 20.11414447 121.93663575
Sb 5.97825201 22.58360520 123.62466836
Te 8.12343809 21.32922367 125.52532022
Sb 5.97489877 20.07689201 127.42283522
Te 5.97037413 22.54636366 129.11086762
Te 5.97102790 17.56637550 131.80691759
Sb 5.96653959 20.03586863 133.49490198
Te 8.11168662 18.78146406 135.39564506
Sb 5.96321133 17.52916858 137.29327605
Te 5.95872528 19.99866289 138.98125985
Te 8.10268554 18.73868228 141.70267221
Sb 8.09820550 21.20818014 143.39064884
Te 10.24334676 19.95377179 145.29140532
Sb 8.09488073 18.70148161 147.18905302
Te 8.09040023 21.17097941 148.87703001
Te 5.94074614 19.91311241 151.59532784
Sb 5.93626552 22.38260989 153.28330502
Te 8.08140689 21.12820201 155.18406058
Sb 5.93294016 19.87591148 157.08170712
Te 5.92845969 22.34540909 158.76968486
Te 5.92905125 17.36538460 161.46568023
Sb 5.92457154 19.83488277 163.15365835
Te 8.06971183 18.58047417 165.05441114
Sb 5.92124640 17.32818411 166.95206613
Te 5.91676736 19.79768260 168.64003010
Te 8.06072489 18.53769890 171.36157822
Sb 8.05624615 21.00719756 173.04950636
Te 10.20138640 19.75278784 174.95036752
Sb 8.05290072 18.50049073 176.84782168
Te 8.04842961 20.96999209 178.53613938
Te 5.89901296 19.71226700 181.25056166
Sb 5.89412000 22.18150794 182.94043766
Te 8.03977004 20.92739351 184.84025875
Sb 5.89129684 19.67512386 186.73913429
Te 5.88615987 22.14444019 188.41435846
Te 6.28443344 19.42202244 191.60131097
Sb 6.27461383 21.88862653 193.28229949
Te 8.42574332 20.63762929 195.17859823
Sb 6.26726152 19.37971252 197.05630580
Te 6.25773818 21.84628681 198.74614878
Te 6.19155125 24.27411725 201.45937706
Bi 4.09475963 23.05152723 203.34196805
Te 4.18348436 25.57299365 205.33740771
Bi 6.26631782 24.17960858 1.88440641
Te 4.05831089 22.89508278 3.50737422
Te 6.48169862 24.27292509 6.53252588
Bi 4.42902399 23.08148114 8.49317839
Te 4.57651281 25.63830991 10.42593690
Bi 6.55641154 24.28919350 12.63100610
Te 4.31498568 22.97354929 14.17581761
Te 6.42628665 23.87693098 17.23057168
Bi 4.37270826 22.69195426 19.19371193
Te 4.52984175 25.25250082 21.11929467
Bi 6.50054094 23.89447159 23.33130200
Te 4.25486433 22.57946469 24.87148316
Te 6.13143703 23.83727158 27.94880750
Bi 4.08411989 22.64647229 29.91161819
Te 4.24466542 25.21035925 31.83317735
Bi 6.21161245 23.85056606 34.04752669
Te 3.96244752 22.53929145 35.58575103
Te 5.84426541 23.79495298 38.66249384
Bi 3.79426251 22.60810362 40.62426393
Te 3.95159173 25.17070317 42.54824377
Bi 5.92274768 23.81630998 44.75906600
Te 3.67923764 22.49821422 46.29848328
Te 5.79517164 23.40317683 49.35321600
Bi 3.73984193 22.22168150 51.31611751
Te 3.89431413 24.78131119 53.24346326
Bi 5.86866427 23.42833044 55.45226208
Te 3.62798228 22.10691218 56.99302245
Te 5.73804688 23.01618485 60.04901392
Bi 3.68580162 21.82903826 62.01209829
Te 3.84312257 24.38914824 63.93748037
Bi 5.81366421 23.03190890 66.14907740
Te 3.56657421 21.72029995 67.69006289
Te 5.61593580 22.69110318 70.76345492
Bi 3.56935921 21.49480555 72.72189851
Te 3.72245711 24.05384371 74.65006840
Bi 5.70121865 22.70170065 76.85651858
Te 3.45492881 21.39597779 78.40059538
Te 5.96243031 22.82567543 81.44585288
Bi 3.88360734 21.61370527 83.35233020
Te 3.98448916 24.14233988 85.33169007
Bi 6.02580842 22.82647784 87.47970145
Te 3.81610505 21.54037405 89.09767961
Te 8.21444763 24.06464947 91.84543415
Bi 6.02415975 22.78955593 93.50592154
Te 5.96570216 25.22520211 95.64496482
Bi 8.16596637 24.00198795 97.65575411
Te 6.05437104 22.77132894 99.50295798
Te 3.85691588 21.48617745 102.16443341
Sb 3.85616302 23.95785422 103.84812845
Te 5.99871360 22.70190758 105.75603119
Sb 3.85567738 21.45269933 107.66343565
Te 3.85407609 23.92388227 109.34762575
Te 5.99516145 22.66225436 112.06692347
Sb 5.99008984 25.13140716 113.75544872
Te 8.13565008 23.87724694 115.65526235
Sb 5.98655109 22.62459819 117.55177039
Te 5.98166948 25.09386109 119.24024417
Te 3.83254929 23.83630155 121.95893047
Sb 3.82800557 26.30576237 123.64696313
Te 5.97319153 25.05138064 125.54761487
Sb 3.82465213 23.79904921 127.44512988
Te 3.82012764 26.26852081 129.13316238
Te 3.82078136 21.28853254 131.82921228
Sb 3.81629301 23.75802559 133.51719678
Te 5.96144013 22.50362096 135.41793972
Sb 3.81296473 21.25132548 137.31557059
Te 3.80847878 23.72081991 139.00355463
Te 5.95243900 22.46083937 141.72496694
Sb 5.94795899 24.93033719 143.41294351
Te 8.09310023 23.67592890 145.31369996
Sb 5.94463422 22.42363880 147.21134769
Te 5.94015370 24.89313649 148.89932471
Te 3.79049960 23.63526949 151.61762250
Sb 3.78601896 26.10476705 153.30559964
Te 5.93116025 24.85035898 155.20635531
Sb 3.78269354 23.59806858 157.10400185
Te 3.77821316 26.06756620 158.79197969
Te 3.77880470 21.08754160 161.48797503
Sb 3.77432506 23.55703984 163.17595299
Te 5.91946532 22.30263118 165.07670586
Sb 3.77099981 21.05034108 166.97436086
Te 3.76652093 23.51983967 168.66232475
Te 5.91047837 22.25985595 171.38387299
Sb 5.90599963 24.72935479 173.07180112
Te 8.05113994 23.47494489 174.97266234
Sb 5.90265415 22.22264782 176.87011651
Te 5.89818308 24.69214921 178.55843411
Te 3.74876633 23.43442415 181.27285644
Sb 3.74387342 25.90366491 182.96273246
Te 5.88952348 24.64955050 184.86255356
Sb 3.74105028 23.39728077 186.76142906
Te 3.73591324 25.86659712 188.43665328
Te 4.13418693 23.14417975 191.62360580
Sb 4.12436722 25.61078363 193.30459442
Te 6.27549680 24.35978648 195.20089304
Sb 4.11701509 23.10186959 197.07860058
Te 4.10749172 25.56844392 198.76844367
Te 4.04130476 27.99627429 201.48167196
Bi 1.94451315 26.77368422 203.36426288
Te 2.03323773 29.29515051 205.35970280
Bi 4.11607126 27.90176559 1.90670156
Te 1.90806445 26.61723961 3.52966922
Te 4.33145202 27.99508202 6.55482094
Bi 2.27877756 26.80363828 8.51547356
Te 2.42626630 29.36046705 10.44823188
Bi 4.40616508 28.01135064 12.65330128
Te 2.16473922 26.69570638 14.19811262
Te 4.27604033 27.59908798 17.25286678
Bi 2.22246181 26.41411135 19.21600693
Te 2.37959530 28.97465776 21.14158980
Bi 4.35029450 27.61662871 23.35359730
Te 2.10461787 26.30162182 24.89377841
Te 3.98119062 27.55942853 27.97110266
Bi 1.93387345 26.36862929 29.93391338
Te 2.09441905 28.93251630 31.85547260
Bi 4.06136604 27.57272328 34.06982202
Te 1.81220108 26.26144867 35.60804635
Te 3.69401903 27.51711010 38.68478910
Bi 1.64401610 26.33026083 40.64655914
Te 1.80134538 28.89286033 42.57053911
Bi 3.77250141 27.53846711 44.78136131
Te 1.52899109 26.22037132 46.32077867
Te 3.64492522 27.12533395 49.37551139
Bi 1.58959541 25.94383851 51.33841269
Te 1.74406765 28.50346806 53.26575853
Bi 3.71841782 27.15048744 55.47455751
Te 1.47773568 25.82906901 57.01531771
Te 3.58780039 26.73834187 60.07130902
Bi 1.53555502 25.55119536 62.03439353
Te 1.69287603 28.11130536 63.95977563
Bi 3.66341772 26.75406583 66.17137241
Te 1.41632768 25.44245712 67.71235806
Te 3.46568937 26.41326050 70.78574982
Bi 1.41911275 25.21696269 72.74419350
Te 1.57221040 27.77600080 74.67236330
Bi 3.55097223 26.42385784 76.87881347
Te 1.30468238 25.11813487 78.42289029
Te 3.81218382 26.54783238 81.46814778
Bi 1.73336087 25.33586225 83.37462518
Te 1.83424266 27.86449690 85.35398495
Bi 3.87556199 26.54863485 87.50199618
Te 1.66585853 25.26253104 89.11997439
Te 6.06420105 27.78680650 91.86772891
Bi 3.87391317 26.51171305 93.52821634
Te 3.81545571 28.94735926 95.66725955
Bi 6.01571984 27.72414496 97.67804884
Te 3.90412453 26.49348610 99.52525263
Te 1.70666945 25.20833455 102.18672809
Sb 1.70591651 27.68001124 103.87042322
Te 3.84846709 26.42406448 105.77832579
Sb 1.70543089 25.17485638 107.68573033
Te 1.70382963 27.64603935 109.36992039
Te 3.84491484 26.38441148 112.08921820
Sb 3.83984335 28.85356414 113.77774347
Te 5.98540350 27.59940404 115.67755708
Sb 3.83630457 26.34675525 117.57406511
Te 3.83142278 28.81601812 119.26253881
Te 1.68230280 27.55845857 121.98122517
Sb 1.67775888 30.02791935 123.66925776
Te 3.82294495 28.77353780 125.56990961
Sb 1.67440559 27.52120629 127.46742474
Te 1.66988103 29.99067788 129.15545711
Te 1.67053479 25.01068967 131.85150700
Sb 1.66604645 27.48018270 133.53949147
Te 3.81119346 26.22577803 135.44023443
Sb 1.66271817 24.97348265 137.33786536
Te 1.65823218 27.44297692 139.02584940
Te 3.80219253 26.18299635 141.74726159
Sb 3.79771238 28.65249422 143.43523831
Te 5.94285363 27.39808594 145.33599469
Sb 3.79438763 26.14579586 147.23364247
Te 3.78990729 28.61529356 148.92161941
Te 1.64025305 27.35742657 151.63991725
Sb 1.63577240 29.82692401 153.32789442
Te 3.78091373 28.57251607 155.22865008
Sb 1.63244703 27.32022556 157.12629649
Te 1.62796667 29.78972324 158.81427423
Te 1.62855812 24.80969867 161.51026966
Sb 1.62407856 27.27919689 163.19824769
Te 3.76921880 26.02478814 165.09900051
Sb 1.62075318 24.77249817 166.99665555
Te 1.61627436 27.24199668 168.68461950
Te 3.76023181 25.98201301 171.40616769
Sb 3.75575317 28.45151167 173.09409581
Te 5.90089323 27.19710187 174.99495725
Sb 3.75240751 25.94480489 176.89241150
Te 3.74793657 28.41430626 178.58072892
Te 1.59851978 27.15658124 181.29515137
Sb 1.59362690 29.62582202 182.98502738
Te 3.73927692 28.37170746 184.88484847
Sb 1.59080369 27.11943791 186.78372400
Te 1.58566668 29.58875406 188.45894820
Te 1.98394046 26.86633673 191.64590061
Sb 1.97412072 29.33294061 193.32688916
Te 4.12525036 28.08194354 195.22318800
Sb 1.96676864 26.82402668 197.10089548
Te 1.95724519 29.29060085 198.79073868
Te 1.89105819 31.71843117 201.50396702
Bi -0.20573340 30.49584137 203.38655824
Te -0.11700866 33.01730781 205.38199770
Bi 1.96582471 31.62392249 1.92899646
Te -0.24218200 30.33939655 3.55196412
Te 2.18120559 31.71723904 6.57711593
Bi 0.12853099 30.52579523 8.53776871
Te 0.27601986 33.08262411 10.47052686
Bi 2.25591857 31.73350773 12.67559632
Te 0.01449260 30.41786337 14.22040782
Te 2.12579393 31.32124478 17.27516174
Bi 0.07221545 30.13626842 19.23830218
Te 0.22934883 32.69681493 21.16388491
Bi 2.20004798 31.33878577 23.37589242
Te -0.04562867 30.02377892 24.91607350
Te 1.83094419 31.28158550 27.99339792
Bi -0.21637301 30.09078643 29.95620864
Te -0.05582735 32.65467327 31.87776786
Bi 1.91111963 31.29488037 34.09211736
Te -0.33804542 29.98360573 35.63034150
Te 1.54377267 31.23926713 38.70708441
Bi -0.50623035 30.05241795 40.66885455
Te -0.34890090 32.61501733 42.59283430
Bi 1.62225501 31.26062423 44.80365657
Te -0.62125517 29.94252846 46.34307389
Te 1.49467873 30.84749082 49.39780670
Bi -0.56065120 29.66599552 51.36070801
Te -0.40617896 32.22562522 53.28805374
Bi 1.56817127 30.87264454 55.49685266
Te -0.67251085 29.55122616 57.03761303
Te 1.43755393 30.46049872 60.09360413
Bi -0.61469141 29.27335232 62.05668859
Te -0.45737034 31.83346245 63.98207073
Bi 1.51317119 30.47622284 66.19366752
Te -0.73391875 29.16461420 67.73465310
Te 1.31544304 30.13541765 70.80804479
Bi -0.73113360 28.93911985 72.76648842
Te -0.57803602 31.49815790 74.69465837
Bi 1.40072583 30.14601477 76.90110850
Te -0.84556399 28.84029194 78.44518523
Te 1.66193719 30.26998951 81.49044256
Bi -0.41688578 29.05801930 83.39691994
Te -0.31600390 31.58665383 85.37627972
Bi 1.72531536 30.27079200 87.52429101
Te -0.48438797 28.98468807 89.14226917
Te 3.91395449 31.50896352 91.89002361
Bi 1.72366669 30.23386997 93.55051102
Te 1.66520909 32.66951610 95.68955430
Bi 3.86547330 31.44630202 97.70034356
Te 1.75387788 30.21564302 99.54754737
Te -0.44357707 28.93049160 102.20902284
Sb -0.44433005 31.40216837 103.89271797
Te 1.69822066 30.14622150 105.80062060
Sb -0.44481564 28.89701333 107.70802505
Te -0.44641688 31.36819641 109.39221517
Te 1.69466841 30.10656839 112.11151288
Sb 1.68959683 32.57572123 113.80003812
Te 3.83515690 31.32156109 115.69985175
Sb 1.68605795 30.06891228 117.59635988
Te 1.68117640 32.53817518 119.28483343
Te -0.46794387 31.28061574 122.00351993
Sb -0.47248772 33.75007637 123.69155265
Te 1.67269839 32.49569477 125.59220435
Sb -0.47584103 31.24336338 127.48971932
Te -0.48036545 33.71283497 129.17775185
Te -0.47971183 28.73284658 131.87380169
Sb -0.48420018 31.20233962 133.56178609
Te 1.66094692 29.94793506 135.46252912
Sb -0.48752837 28.69563959 137.36016009
Te -0.49201426 31.16513402 139.04814411
Te 1.65194598 29.90515338 141.76955635
Sb 1.64746596 32.37465127 143.45753293
Te 3.79260696 31.12024308 145.35828949
Sb 1.64414110 29.86795286 147.25593727
Te 1.63966058 32.33745067 148.94391402
Te -0.50999349 31.07958356 151.66221194
Sb -0.51447424 33.54908112 153.35018914
Te 1.63066723 32.29467321 155.25094473
Sb -0.51779946 31.04238269 157.14859112
Te -0.52227986 33.51188034 158.83656907
Te -0.52168841 28.53185570 161.53256432
Sb -0.52616804 31.00135398 163.22054250
Te 1.61897225 29.74694521 165.12129529
Sb -0.52949328 28.49465528 167.01895019
Te -0.53397219 30.96415376 168.70691431
Te 1.60998533 29.70417010 171.42846252
Sb 1.60550650 32.17366880 173.11639055
Te 3.75064680 30.91925883 175.01725187
Sb 1.60216098 29.66696198 176.91470625
Te 1.59769005 32.13646330 178.60302370
Te -0.55172670 30.87873825 181.31744637
Sb -0.55661972 33.34797912 183.00732234
Te 1.58903029 32.09386453 184.90714348
Sb -0.55944280 30.84159478 186.80601904
Te -0.56457979 33.31091119 188.48124312
Te -0.16630608 30.58849369 191.66819551
Sb -0.17612577 33.05509756 193.34918415
Te 1.97500385 31.80410041 195.24548286
Sb -0.18347789 30.54618359 197.12319047
Te -0.19300135 33.01275784 198.81303366
Te -0.25918834 35.44058821 201.52626181
Bi -2.35597995 34.21799824 203.40885286
Te -2.26725526 36.73946463 205.40429259
Bi -0.18442169 35.34607956 1.95129168
Te -2.39242865 34.06155355 3.57425903
Te 0.03095915 35.43939595 6.59941094
Bi -2.02171557 34.24795217 8.56006346
Te -1.87422677 36.80478108 10.49282174
Bi 0.10567195 35.45566484 12.69789137
Te -2.13575397 34.14002049 14.24270289
Te -0.02445274 35.04340170 17.29745681
Bi -2.07803114 33.85842530 19.26059726
Te -1.92089767 36.41897210 21.18617979
Bi 0.04980134 35.06094294 23.39818749
Te -2.19587522 33.74593603 24.93836847
Te -0.31930239 35.00374217 28.01569289
Bi -2.36661941 33.81294338 29.97850399
Te -2.20607385 36.37683059 31.90006276
Bi -0.23912698 35.01703760 34.11441248
Te -2.48829193 33.70576310 35.65263664
Te -0.60647367 34.96142380 38.72937949
Bi -2.65647664 33.77457490 40.69114973
Te -2.49914739 36.33717450 42.61512931
Bi -0.52799144 34.98278136 44.82595185
Te -2.77150177 33.66468551 46.36536901
Te -0.65556778 34.56964771 49.42010172
Bi -2.71089769 33.38815241 51.38300316
Te -2.55642532 35.94778223 53.31034893
Bi -0.58207528 34.59480167 55.51914790
Te -2.82275744 33.27338326 57.05990819
Te -0.71269239 34.18265583 60.11589915
Bi -2.76493782 32.99550932 62.07898365
Te -2.60761688 35.55561955 64.00436567
Bi -0.63707530 34.19837992 66.21596253
Te -2.88416512 32.88677119 67.75694801
Te -0.83480350 33.85757459 70.83033982
Bi -2.88138006 32.66127686 72.78878347
Te -2.72828234 35.22031503 74.71695327
Bi -0.74952046 33.86817214 76.92340356
Te -2.99581035 32.56244906 78.46748024
Te -0.48830927 33.99214631 81.51273748
Bi -2.56713228 32.78017618 83.41921471
Te -2.46625033 35.30881095 85.39857453
Bi -0.42493122 33.99294889 87.54658577
Te -2.63463461 32.70684493 89.16456405
Te 1.76370793 35.23112048 91.91231839
Bi -0.42657982 33.95602708 93.57280577
Te -0.48503747 36.39167333 95.71184896
Bi 1.71522671 35.16845914 97.72263838
Te -0.39636867 33.93780009 99.56984201
Te -2.59382364 32.65264856 102.23131746
Sb -2.59457667 35.12432535 103.91501252
Te -0.45202605 33.86837864 105.82291519
Sb -2.59506217 32.61917024 107.73031983
Te -2.59666356 35.09035351 109.41450978
Te -0.45557826 33.82872552 112.13380743
Sb -0.46064978 36.29787831 113.82233259
Te 1.68491044 35.04371811 115.72214649
Sb -0.46418854 33.79106938 117.61865447
Te -0.46907035 36.26033231 119.30712805
Te -2.61819030 35.00277276 122.02581451
Sb -2.62273429 37.47223352 123.71384713
Te -0.47754823 36.21785197 125.61449898
Sb -2.62608757 34.96552047 127.51201406
Te -2.63061234 37.43499223 129.20004641
Te -2.62995837 32.45500366 131.89609647
Sb -2.63444666 34.92449680 133.58408071
Te -0.48929957 33.67009219 135.48482374
Sb -2.63777495 32.41779667 137.38245487
Te -2.64226101 34.88729096 139.07043865
Te -0.49830069 33.62731047 141.79185100
Sb -0.50278081 36.09680848 143.47982766
Te 1.64236049 34.84240004 145.38058406
Sb -0.50610552 33.59010987 147.27823175
Te -0.51058598 36.05960768 148.96620862
Te -2.66024014 34.80174071 151.68450662
Sb -2.66472080 37.27123827 153.37248379
Te -0.51957928 36.01683028 155.27323939
Sb -2.66804610 34.76453989 157.17088573
Te -2.67252638 37.23403754 158.85886357
Te -2.67193500 32.25401275 161.55485909
Sb -2.67641459 34.72351081 163.24283698
Te -0.53127430 33.46910225 165.14359000
Sb -2.67973988 32.21681228 167.04124492
Te -2.68421870 34.68631080 168.72920894
Te -0.54026134 33.42632696 171.45075704
Sb -0.54473996 35.89582575 173.13868521
Te 1.60040007 34.64141591 175.03954657
Sb -0.54808544 33.38911892 176.93700111
Te -0.55255651 35.85862031 178.62531844
Te -2.70197327 34.60089507 181.33974131
Sb -2.70686631 37.07013626 183.02961711
Te -0.56121625 35.81602164 184.92943826
Sb -2.70968950 34.56375199 186.82831379
Te -2.71482644 37.03306855 188.50353782
Te -2.31655256 34.31065050 191.69049038
Sb -2.32637222 36.77725459 193.37147894
Te -0.17524285 35.52625743 195.26777776
Sb -2.33372443 34.26834072 197.14548537
Te -2.34324787 36.73491498 198.83532839
Te -2.40943523 39.16274511 201.54855672
Bi -4.50622659 37.94015539 203.43114806
Te -4.41750190 40.46162229 205.42658730
Bi -2.33466847 39.06823674 1.97358594
Te -4.54267517 37.78371079 3.59655374
Te -2.11928757 39.16155258 6.62170541
Bi -4.17196225 37.97010939 8.58235836
Te -4.02447356 40.52693843 10.51511613
Bi -2.04457472 39.17782206 12.72018594
Te -4.28600082 37.86217796 14.26499742
Te -2.17469927 38.76555829 17.31975144
Bi -4.22827776 37.58058229 19.28289234
Te -4.07114445 40.14112926 21.20847447
Bi -2.10044527 38.78310015 23.42048202
Te -4.34612166 37.46809316 24.96066331
Te -2.46954892 38.72589901 28.03798775
Bi -4.51686597 37.53510035 30.00079882
Te -4.35632068 40.09898777 31.92235759
Bi -2.38937366 38.73919495 34.13670698
Te -4.63853848 37.42792027 35.67493145
Te -2.75672008 38.68358077 38.75167420
Bi -4.80672322 37.49673171 40.71344454
Te -4.64939397 40.05933149 42.63742409
Bi -2.67823805 38.70493867 44.84824679
Te -4.92174840 37.38684261 46.38766379
Te -2.80581448 38.29180452 49.44239673
Bi -4.86114416 37.11030954 51.40529835
Te -4.70667210 39.66993960 53.33264367
Bi -2.73232200 38.31695907 55.54144265
Te -4.97300383 36.99554053 57.08220288
Te -2.86293888 37.90481254 60.13819386
Bi -4.91518428 36.71766647 62.10127854
Te -4.75786338 39.27777672 64.02666037
Bi -2.78732189 37.92053730 66.23825742
Te -5.03441168 36.60892860 67.77924288
Te -2.98504985 37.57973160 70.85263456
Bi -5.03162636 36.38343397 72.81107833
Te -4.87852895 38.94247207 74.73924816
Bi -2.89976708 37.59032935 76.94569823
Te -5.14605682 36.28460614 78.48977515
Te -2.63855594 37.71430354 81.53503222
Bi -4.71737872 36.50233320 83.44150948
Te -4.61649693 39.03096792 85.42086912
Bi -2.57517776 37.71510614 87.56888050
Te -4.78488107 36.42900210 89.18685883
Te -0.38653866 38.95327768 91.93461291
Bi -2.57682661 37.67818398 93.59510060
Te -2.63528403 40.11383056 95.73414353
Bi -0.43501988 38.89061634 97.74493294
Te -2.54661542 37.65995722 99.59213655
Te -4.74407025 36.37480550 102.25361211
Sb -4.74482334 38.84648245 103.93730710
Te -2.60227254 37.59053568 105.84520976
Sb -4.74530874 36.34132741 107.75261434
Te -4.74691016 38.81251069 109.43680431
Te -2.60582491 37.55088264 112.15610212
Sb -2.61089648 40.02003554 113.84462708
Te -0.46533620 38.76587527 115.74444098
Sb -2.61443516 37.51322651 117.64094905
Te -2.61931696 39.98248944 119.32942252
Te -4.76843700 38.72492987 122.04810920
Sb -4.77298090 41.19439070 123.73614177
Te -2.62779485 39.94000912 125.63679358
Sb -4.77633413 38.68767755 127.53430862
Te -4.78085902 41.15714936 129.22234090
Te -4.78020495 36.17716081 131.91839115
Sb -4.78469331 38.64665401 133.60637543
Te -2.63954626 37.39224917 135.50711846
Sb -4.78802156 36.13995381 137.40474951
Te -4.79250761 38.60944830 139.09273336
Te -2.64854727 37.34946727 141.81414553
Sb -2.65302745 39.81896547 143.50212202
Te -0.50788616 38.56455729 145.40287862
Sb -2.65635210 37.31226702 147.30052639
Te -2.66083267 39.78176484 148.98850322
Te -4.81048674 38.52389774 151.70680123
Sb -4.81496754 40.99339546 153.39477824
Te -2.66982597 39.73898750 155.29553395
Sb -4.81829272 38.48669714 157.19318023
Te -4.82277314 40.95619476 158.88115804
Te -4.82218160 35.97616975 161.57715378
Sb -4.82666098 38.44566804 163.26513173
Te -2.68152098 37.19125924 165.16588459
Sb -4.82998648 35.93896931 167.06353960
Te -4.83446529 38.40846803 168.75150351
Te -2.69050777 37.14848395 171.47305180
Sb -2.69498667 39.61798289 173.16097977
Te -0.54984648 38.36357305 175.06184114
Sb -2.69833199 37.11127603 176.95929558
Te -2.70280327 39.58077738 178.64761284
Te -4.85221988 38.32305213 181.36203609
Sb -4.85711283 40.79229338 183.05191187
Te -2.71146281 39.53817880 184.95173293
Sb -4.85993614 38.28590921 186.85060856
Te -4.86507320 40.75522583 188.52583241
Te -4.46679917 38.03280740 191.71278518
Sb -4.47661906 40.49941148 193.39377369
Te -2.32548947 39.24841438 195.29007254
Sb -4.48397098 37.99049768 197.16778009
Te -4.49349474 40.45707191 198.85762317
Te -4.55968177 42.88490213 201.57085107
Bi -6.65647327 41.66231238 203.45344236
Te -6.56774858 44.18377902 205.44888159
Bi -4.48491513 42.79039433 1.99588075
Te -6.69292212 41.50586832 3.61884818
Te -4.26953433 42.88370995 6.64399978
Bi -6.32220897 41.69226641 8.60465270
Te -6.17472030 44.24909557 10.53741034
Bi -4.19482157 42.89997945 12.74248029
Te -6.43624751 41.58433533 14.28729182
Te -4.32494595 42.48771541 17.34204599
Bi -6.37852441 41.30273921 19.30518658
Te -6.22139143 43.86328620 21.23076871
Bi -4.25069215 42.50525752 23.44277642
Te -6.49636852 41.19025048 24.98295782
Te -4.61979541 42.44805584 28.06028225
Bi -6.66711254 41.25725753 30.02309330
Te -6.50656754 43.82114493 31.94465180
Bi -4.53962037 42.46135230 34.15900140
Te -6.78878535 41.15007745 35.69722575
Te -4.90696666 42.40573763 38.77396879
Bi -6.95696971 41.21888872 40.73573927
Te -6.79964082 43.78148873 42.65971845
Bi -4.82848491 42.42709611 44.87054114
Te -7.07199510 41.10899990 46.40995830
Te -4.95606094 42.01396149 49.46469110
Bi -7.01139070 40.83246657 51.42759282
Te -6.85691901 43.39209661 53.35493810
Bi -4.88256865 42.03911664 55.56373725
Te -7.12325053 40.71769785 57.10449769
Te -5.01318549 41.62696992 60.16048865
Bi -7.06543080 40.43982366 62.12357321
Te -6.90811017 42.99993395 64.04895485
Bi -4.93756865 41.64269476 66.26055198
Te -7.18465840 40.33108596 67.80153763
Te -5.13529632 41.30188853 70.87492920
Bi -7.18187294 40.10559099 72.83337306
Te -7.02877571 42.66462944 74.76154262
Bi -5.05001351 41.31248665 76.96799293
Te -7.29630332 40.00676360 78.51206995
Te -4.78880249 41.43646065 81.55732690
Bi -6.86762546 40.22449049 83.46380419
Te -6.76674386 42.75312534 85.44316360
Bi -4.72542453 41.43726340 87.59117487
Te -6.93512765 40.15115950 89.20915331
Te -2.53678547 42.67543480 91.95690734
Bi -4.72707323 41.40034145 93.61739503
Te -4.78553071 43.83598784 95.75643806
Bi -2.58526660 42.61277351 97.76722737
Te -4.69686211 41.38211445 99.61443095
Te -6.89431692 40.09696278 102.27590673
Sb -6.89506998 42.56863977 103.95960161
Te -4.75251938 41.31269293 105.86750438
Sb -6.89555547 40.06348464 107.77490889
Te -6.89715714 42.53466791 109.45909874
Te -4.75607162 41.27303984 112.17839667
Sb -4.76114333 43.74219278 113.86692166
Te -2.61558302 42.48803248 115.76673542
Sb -4.76468197 41.23538364 117.66324346
Te -4.76956382 43.70464674 119.35171682
Te -6.91868364 42.44708700 122.07040362
Sb -6.92322762 44.91654782 123.75843619
Te -4.77804158 43.66216632 125.65908799
Sb -6.92658089 42.40983468 127.55660309
Te -6.93110569 44.87930650 129.24463523
Te -6.93045155 39.89931798 131.94068584
Sb -6.93494009 42.36881124 133.62867006
Te -4.78979296 41.11440648 135.52941313
Sb -6.93826824 39.86211084 137.42704405
Te -6.94275434 42.33160553 139.11502794
Te -4.79879392 41.07162442 141.83644006
Sb -4.80327417 43.54112263 143.52441660
Te -2.65813294 42.28671434 145.42517312
Sb -4.80659880 41.03442419 147.32282094
Te -4.81107949 43.50392213 149.01079761
Te -6.96073344 42.24605490 151.72909587
Sb -6.96521423 44.71555274 153.41707259
Te -4.82007260 43.46114468 155.31782836
Sb -6.96853929 42.20885426 157.21547481
Te -6.97301987 44.67835211 158.90345248
Te -6.97242812 39.69832698 161.59944839
Sb -6.97690762 42.16782525 163.28742632
Te -4.83176754 40.91341657 165.18817932
Sb -6.98023307 39.66112644 167.08583428
Te -6.98471204 42.13062517 168.77379806
Te -4.84075450 40.87064111 171.49534633
Sb -4.84523324 43.34013996 173.18327447
Te -2.70009295 42.08573022 175.08413562
Sb -4.84857872 40.83343322 176.98158978
Te -4.85305002 43.30293474 178.66990702
Te -7.00246654 42.04520931 181.38433079
Sb -7.00735960 44.51445058 183.07420619
Te -4.86170963 43.26033613 184.97402747
Sb -7.01018277 42.00806663 186.87290308
Te -7.01532012 44.47738332 188.54812676
Te -6.61704569 41.75496450 191.73507991
Sb -6.62686561 44.22156848 193.41606840
Te -4.47573601 42.97057149 195.31236716
Sb -6.63421767 41.71265470 197.19007471
Te -6.64374132 44.17922925 198.87991751
Te -6.70992880 46.60705917 201.59314533
Bi -8.80672000 45.38446955 203.47573707
Te -8.71799566 47.90593643 205.47117578
Bi -6.63516210 46.51255141 2.01817470
Te -8.84316904 45.22802565 3.64114242
Te -6.41978123 46.60586691 6.66629404
Bi -8.47245582 45.41442366 8.62694690
Te -8.32496766 47.97125296 10.55970436
Bi -6.34506877 46.62213688 12.76477405
Te -8.58649451 45.30649280 14.30958586
Te -6.47519272 46.20987224 17.36433997
Bi -8.52877121 45.02489645 19.32748067
Te -8.37163817 47.58544339 21.25306256
Bi -6.40093922 46.22741470 23.46507063
Te -8.64661561 44.91240796 25.00525193
Te -6.77004220 46.17021284 28.08257635
Bi -8.81735942 44.97941460 30.04538750
Te -8.65681446 47.54330220 31.96694553
Bi -6.68986744 46.18350978 34.18129548
Te -8.93903233 44.87223507 35.71951996
Te -7.05721354 46.12789433 38.79626284
Bi -9.10721644 44.94104587 40.75803349
Te -8.94988774 47.50364616 42.68201236
Bi -6.97873168 46.14925342 44.89283517
Te -9.22224199 44.83115753 46.43225254
Te -7.10630759 45.73611836 49.48698516
Bi -9.16163751 44.55462374 51.44988709
Te -9.00716584 47.11425400 53.37723203
Bi -7.03281546 45.76127395 55.58603128
Te -9.27349724 44.43985548 57.12679186
Te -7.16343217 45.34912676 60.18278292
Bi -9.21567763 44.16198074 62.14586768
Te -9.05835735 46.72209117 64.07124908
Bi -7.08781532 45.36485233 66.28284598
Te -9.33490482 44.05324367 67.82383190
Te -7.28554295 45.02404543 70.89722371
Bi -9.33211954 43.82774814 72.85566733
Te -9.17902239 46.38678652 74.78383678
Bi -7.20026023 45.03464401 76.99028718
Te -9.44655003 43.72892100 78.53436417
Te -6.93904928 45.15861784 81.57962112
Bi -9.01787218 43.94664761 83.48609850
Te -8.91699049 46.47528255 85.46545778
Bi -6.87567138 45.15942077 87.61346938
Te -9.08537448 43.87331676 89.23144786
Te -4.68703227 46.39759221 91.97920166
Bi -6.87732017 45.12249877 93.63968950
Te -6.93577752 47.55814530 95.77873234
Bi -4.73551343 46.33493102 97.78952172
Te -6.84710894 45.10427173 99.63672524
Te -9.04456358 43.81912010 102.29820113
Sb -9.04531681 46.29079697 103.98189585
Te -6.90276620 45.03485028 105.88979873
Sb -9.04580224 43.78564184 107.79720314
Te -9.04740400 46.25682545 109.48139308
Te -6.90631837 44.99519704 112.20069104
Sb -6.91139006 47.46435009 113.88921586
Te -4.76582987 46.21018976 115.78902964
Sb -6.91492880 44.95754101 117.68553793
Te -6.91981080 47.42680421 119.37401105
Te -9.06893052 46.16924424 122.09269791
Sb -9.07347446 48.63870528 123.78073035
Te -6.92828842 47.38432366 125.68138222
Sb -9.07682787 46.13199201 127.57889746
Te -9.08135265 48.60146414 129.26692941
Te -9.08069828 43.62147523 131.96298038
Sb -9.08518688 46.09096850 133.65096462
Te -6.94003977 44.83656378 135.55170758
Sb -9.08851499 43.58426812 137.44933864
Te -9.09300124 46.05376282 139.13732237
Te -6.94904069 44.79378171 141.85873452
Sb -6.95352096 47.26327999 143.54671076
Te -4.80837971 46.00887160 145.44746747
Sb -6.95684564 44.75658143 147.34511530
Te -6.96132643 47.22607962 149.03309183
Te -9.11098019 45.96821215 151.75139024
Sb -9.11546105 48.43770998 153.43936698
Te -6.97031935 47.18330195 155.34012268
Sb -9.11878602 45.93101151 157.23776919
Te -9.12326679 48.40050943 158.92574676
Te -9.12267487 43.42048426 161.62174294
Sb -9.12715453 45.88998259 163.30972064
Te -6.98201447 44.63557387 165.21047361
Sb -9.13047975 43.38328376 167.10812874
Te -9.13495892 45.85278253 168.79609232
Te -6.99100106 44.59279824 171.51764088
Sb -6.99548012 47.06229736 173.20556876
Te -4.85033980 45.80788747 175.10643008
Sb -6.99882549 44.55559041 177.00388441
Te -7.00329685 47.02509203 178.69220139
Te -9.15271323 45.76736662 181.40662515
Sb -9.15760641 48.23660785 183.09650052
Te -7.01195638 46.98249344 184.99632158
Sb -9.16042959 45.73022405 186.89519734
Te -9.16556695 48.19954080 188.57042100
Te -8.76729234 45.47712151 191.75737435
Sb -8.77711262 47.94372561 193.43836274
Te -6.62598277 46.69272879 195.33466153
Sb -8.78446439 45.43481198 197.21236902
Te -8.79398822 47.90138649 198.90221155
Te -8.86017557 50.32921660 201.61543934
Bi -10.95696694 49.10662686 203.49803082
Te -10.86824241 51.62809395 205.49346968
Bi -8.78540887 50.23470885 2.04046901
Te -10.99341602 48.95018304 3.66343637
Te -8.57002811 50.32802432 6.68858799
Bi -10.62270303 49.13658083 8.64924073
Te -10.47521489 51.69341015 10.58199809
Bi -8.49531590 50.34429445 12.78706796
Te -10.73674173 49.02865047 14.33187994
Te -8.62543975 49.93202954 17.38663376
Bi -10.67901842 48.74705351 19.34977454
Te -10.52188554 51.30760092 21.27535611
Bi -8.55118620 49.94957235 23.48736398
Te -10.79686235 48.63456566 25.02754567
Te -8.92028906 49.89237004 28.10487002
Bi -10.96760635 48.70157179 30.06768101
Te -10.80706153 51.26545945 31.98923889
Bi -8.84011452 49.90566717 34.20358901
Te -11.08927933 48.59439278 35.74181361
Te -9.20746046 49.85005163 38.81855654
Bi -11.25746346 48.66320283 40.78032738
Te -11.10013489 51.22580329 42.70430573
Bi -9.12897883 49.87141113 44.91512885
Te -11.37248891 48.55331535 46.45454635
Te -9.25655455 49.45827572 49.50927905
Bi -11.31188441 48.27678108 51.47218096
Te -11.15741306 50.83641153 53.39952552
Bi -9.18306279 49.48343142 55.60832469
Te -11.42374407 48.16201322 57.14908564
Te -9.31367887 49.07128401 60.20507675
Bi -11.36592437 47.88413809 62.16816147
Te -11.20860429 50.44424860 64.09354271
Bi -9.23806211 49.08700965 66.30513954
Te -11.48515187 47.77540136 67.84612604
Te -9.43578958 48.74620278 70.91951778
Bi -11.48236618 47.54990536 72.87796141
Te -11.32926926 50.10894398 74.80613072
Bi -9.35050735 48.75680141 77.01258124
Te -11.59679702 47.45107856 78.55665833
Te -9.08929609 48.88077525 81.60191505
Bi -11.16811883 47.66880503 83.50839271
Te -11.06723745 50.19743996 85.48775182
Bi -9.02591825 48.88157812 87.63576343
Te -11.23562139 47.59547419 89.25374197
Te -6.83727901 50.11974978 92.00149594
Bi -9.02756703 48.84465632 93.66198382
Te -9.08602453 51.28030297 95.80102652
Bi -6.88576063 50.05708858 97.81181577
Te -8.99735590 48.82642917 99.65901950
Te -11.19481054 47.54127742 102.32049550
Sb -11.19556370 50.01295436 104.00419014
Te -9.05301293 48.75700749 105.91209283
Sb -11.19604916 47.50779938 107.81949749
Te -11.19765087 49.97898294 109.50368712
Te -9.05656515 48.71735436 112.22298523
Sb -9.06163704 51.18650760 113.91151013
Te -6.91607671 49.93234729 115.81132383
Sb -9.06517550 48.67969844 117.70783210
Te -9.07005749 51.14896165 119.39630517
Te -11.21917734 49.89140159 122.11499202
Sb 18.87973252 0.25066176 123.49090165
Te -9.07853546 51.10648108 125.70367626
Sb -11.22707467 49.85414951 127.60119151
Te 18.87185453 0.21342075 128.97710061
Te -11.23094509 47.34363258 131.98527481
Sb -11.23543379 49.81312582 133.67325882
Te -9.09028662 48.55872109 135.57400201
Sb -11.23876188 47.30642556 137.47163280
Te -11.24324826 49.77592029 139.15961643
Te -9.09928759 48.51593907 141.88102878
Sb -9.10376775 50.98543744 143.56900486
Te -6.95862660 49.73102907 145.46976159
Sb -9.10709257 48.47873880 147.36740938
Te -9.11157333 50.94823698 149.05538588
Te -11.26122704 49.69036946 151.77368437
Sb 18.83774599 0.04966658 153.14953835
Te -9.12056635 50.90545932 155.36241688
Sb -11.26903308 49.65316875 157.26006323
Te -11.27351392 52.12266679 158.94804077
Te -11.27292178 47.14264145 161.64403726
Sb -11.27740145 49.61213994 163.33201482
Te -9.13226154 48.35773122 165.23276799
Sb -11.28072667 47.10544104 167.13042298
Te -11.28520586 49.57494005 168.81838655
Te -9.14124814 48.31495555 171.53993508
Sb -9.14572702 50.78445473 173.22786289
Te -7.00058670 49.53004509 175.12872423
Sb -9.14907231 48.27774769 177.02617860
Te -9.15354381 50.74724954 178.71449548
Te -11.30296026 49.48952381 181.42891909
Sb -11.30785339 51.95876532 183.11879428
Te -9.16220350 50.70465097 185.01861562
Sb -11.31067660 49.45238142 186.91749148
Te -11.31581397 51.92169853 188.59271480
Te -10.91753934 49.19927867 191.77966859
Sb -10.92735943 51.66588313 193.46065661
Te -8.77622979 50.41488616 195.35695558
Sb -10.93471131 49.15696932 197.23466311
Te -10.94423524 51.62354408 198.92450541
Te 23.51647310 2.01361508 201.36732221
Bi 21.31664003 0.73337960 203.01325182
Te 21.21464326 3.14378326 205.17426093
Bi 23.49693166 1.86693489 1.52751789
Te 21.40925609 0.64926660 3.41688704
Te 23.91796786 2.08219250 6.46624686
Bi 21.67556323 0.77189016 8.01238530
Te 21.50865201 3.14367281 10.23832518
Bi 23.80833471 1.97724176 12.14807511
Te 21.75409207 0.79006552 14.10744542
Te 23.87240648 1.69926486 17.16093934
Bi 21.62964861 0.38101172 18.70134253
Te 21.45124820 2.74926173 20.93381960
Bi 23.75825492 1.58942297 22.83594056
Te 21.70780729 0.40264909 24.79714907
Te 23.59016250 1.65844082 27.87386149
Bi 21.34102690 0.34719242 29.41214176
Te 21.15773199 2.70955607 31.64875271
Bi 23.46853390 1.55128763 33.54797860
Te 21.42123692 0.36051147 35.51083892
Te 23.29810437 1.61834545 38.58833605
Bi 21.05198688 0.30341577 40.12787299
Te 20.87181607 2.66721372 42.36254480
Bi 23.17979247 1.50600007 44.26512337
Te 21.12695092 0.32084908 46.22907417
Te 23.23813318 1.22773503 49.28465691
Bi -9.10600046 52.01645132 51.13746669
Te 20.82157728 2.27547071 53.05645220
Bi 23.12627908 1.11295431 54.96154041
Te -9.03247582 52.04161716 57.23645623
Te 23.18583335 0.83656550 59.97916967
Bi -9.16176058 51.63069305 61.83165037
Te 20.76317889 1.88889999 63.75221308
Bi 23.07010177 0.72871455 65.65480538
Te -9.08182319 51.64790119 67.92744903
Te 23.06952657 0.50172609 70.68918149
Bi -9.28258803 51.30572962 72.54468811
Te 20.64508005 1.56325178 74.46394719
Bi 22.94732549 0.39923978 76.37104208
Te -9.20536109 51.31312605 78.64547859
Te 23.33067725 0.59050055 81.36394000
Bi -8.98890000 51.41091812 83.28112148
Te 20.99692058 1.70189491 85.15786510
Bi 23.24420693 0.50612736 87.12277306
Te -8.94646651 51.39947632 89.33808168
Te 25.32014577 1.67823237 91.65921003
Bi 23.21409725 0.45071280 93.51907270
Te 23.26279671 2.94891216 95.54855326
Bi 25.35107435 1.66042706 97.65522467
Te 23.16697176 0.38878424 99.33834910
Te -9.03995444 51.26786996 102.36146469
Sb 21.05534976 1.62503946 103.73852405
Te 23.20312908 0.37219634 105.63239661
Sb -9.05421691 51.22703147 107.83185232
Te 21.04189188 1.58465236 109.21135454
Te 23.18873926 0.32632928 111.93477488
Sb 23.18484766 2.79617091 113.62221387
Te 25.32957211 1.54151661 115.52390159
Sb 23.18173675 0.28958403 117.42269210
Te 23.17765673 2.75931668 119.11017035
Te 21.02746989 1.50114468 121.82809208
Sb 21.02305203 3.97067931 123.51601351
Te 23.16814920 2.71624518 125.41687282
Sb 21.01975472 1.46399537 127.31465045
Te 21.01531760 3.93351895 129.00257284
Te -9.08760298 51.06366128 132.01065779
Sb 21.01137749 1.42296269 133.38650495
Te 23.15651366 0.16855152 135.28727272
Sb -9.09539900 51.02646652 137.49705715
Te 21.00357925 1.38576652 138.87290480
Te 23.14753052 0.12577970 141.59431143
Sb 23.14304842 2.59527704 143.28228906
Te 25.28819077 1.34086920 145.18304294
Sb 23.13972290 0.08857828 147.08068750
Te 23.13524113 2.55807563 148.76866518
Te 20.98558921 1.30020926 151.48696534
Sb 20.98110790 3.76970685 153.17494246
Te 23.12624997 2.51529901 155.07569756
Sb 20.97778261 1.26300814 156.97334269
Te 20.97330134 3.73250571 158.66132088
Te -9.12955745 50.86268286 161.66944199
Sb 20.96941403 1.22197904 163.04529936
Te -6.98889649 52.07777291 165.25817234
Sb -9.13736507 50.82548121 167.15581967
Te 20.96160582 1.18477705 168.53166458
Te -6.99789562 52.03499176 171.56531869
Sb 23.10107526 2.39428813 172.94112372
Te 25.24621818 1.13988049 174.84197646
Sb -7.00568294 51.99779967 177.05160887
Te 23.09327842 2.35708747 178.42784772
Te 20.94338749 1.09912662 181.14236667
Sb 20.93931925 3.56885937 182.83140991
Te 23.08394625 2.31417205 184.73222069
Sb 20.93547733 1.06173852 186.63156988
Te 20.93166973 3.53177800 188.30551263
Te 21.31656901 0.80191606 191.48471379
Sb 21.31747799 3.27469064 193.15298967
Te 23.45664397 2.01676825 195.05976052
Sb 21.31819458 0.77011328 196.97803105
Te 21.31900624 3.24269486 198.66094265
Te 21.36622588 5.73577282 201.38961616
Bi 19.16639307 4.45553705 203.03554581
Te 19.06439633 6.86594067 205.19655499
Bi 21.34668478 5.58909220 1.54981163
Te 19.25900927 4.37142378 3.43918073
Te 21.76772060 5.80435009 6.48854077
Bi 19.52531603 4.49404761 8.03467881
Te 19.35840509 6.86582999 10.26061894
Bi 21.65808774 5.69939902 12.17036908
Te 19.60384522 4.51222267 14.12973912
Te 21.72215945 5.42142264 17.18323278
Bi 19.47940127 4.10316931 18.72363560
Te 19.30100117 6.47141881 20.95611333
Bi 21.60800800 5.31158039 22.85823442
Te 19.55756021 4.12480633 24.81944279
Te 21.43991521 5.38059850 27.89615504
Bi 19.19077955 4.06934993 29.43443520
Te 19.00748504 6.43171327 31.67104635
Bi 21.31828681 5.27344495 33.57027223
Te 19.27098991 4.08266870 35.53313241
Te 21.14785712 5.34050311 38.61062948
Bi 18.90173968 4.02557332 40.15016634
Te 18.72156912 6.38937102 42.38483853
Bi 21.02954554 5.22815743 44.28741731
Te 18.97670395 4.04300620 46.25136775
Te 21.08788614 4.94989288 49.30695039
Bi 18.84720639 3.62840807 50.84763684
Te 18.67133023 5.99762796 53.07874583
Bi 20.97603216 4.83511183 54.98383395
Te 18.92073126 3.65357374 56.94662701
Te 21.03558639 4.55872347 60.00146318
Bi 18.79144636 3.24264980 61.54182074
Te 18.61293175 5.61105733 63.77450689
Bi 20.91985469 4.45087192 65.67709890
Te 18.87138404 3.25985791 67.63761993
Te 20.91927919 4.22388349 70.71147526
Bi 18.67061886 2.91768602 72.25485918
Te 18.49483281 5.28540916 74.48624102
Bi 20.79707858 4.12139716 76.39333576
Te 18.74784598 2.92508262 78.35564965
Te 21.18043010 4.31265816 81.38623395
Bi 18.96430702 3.02287470 82.99129280
Te 18.84667353 5.42405271 85.18015927
Bi 21.09395975 4.22828488 87.14506694
Te 19.00674070 3.01143287 89.04825281
Te 23.16989885 5.40038980 91.68150409
Bi 21.06385040 4.17287031 93.54136683
Te 21.11254983 6.67106958 95.57084745
Bi 23.20082751 5.38258448 97.67751895
Te 21.01672491 4.11094146 99.36064326
Te 18.91325260 2.87982687 102.07163594
Sb 18.90510285 5.34719681 103.76081843
Te 21.05288217 4.09435376 105.65469077
Sb 18.89899024 2.83898794 107.54202375
Te 18.89164503 5.30680969 109.23364883
Te 21.03849220 4.04848671 111.95706893
Sb 21.03460074 6.51832831 113.64450821
Te 23.17932539 5.26367398 115.54619579
Sb 21.03148979 4.01174149 117.44498629
Te 21.02740998 6.48147411 119.13246468
Te 18.87722302 5.22330216 121.85038617
Sb 18.87280507 7.69283673 123.53830797
Te 21.01790236 6.43840253 125.43916706
Sb 18.86950775 5.18615279 127.33694471
Te 18.86507080 7.65567637 129.02486712
Te 18.86560399 2.67561786 131.72082898
Sb 18.86113052 5.14512018 133.40879927
Te 21.00626679 3.89070893 135.30956689
Sb 18.85780807 2.63842307 137.20722833
Te 18.85333235 5.10792396 138.89519885
Te 20.99728340 3.84793718 141.61660557
Sb 20.99280147 6.31743453 143.30458318
Te 23.13794385 5.06302673 145.20533706
Sb 20.98947596 3.81073547 147.10298149
Te 20.98499434 6.28023303 148.79095951
Te 18.83534221 5.02236660 151.50925957
Sb 18.83086096 7.49186416 153.19723682
Te 20.97600302 6.23745635 155.09799181
Sb 18.82753568 4.98516548 156.99563693
Te 18.82305443 7.45466301 158.68361520
Te 18.82364946 2.47463943 161.37961317
Sb 18.81916700 4.94413654 163.06759352
Te 20.96431055 3.68972947 164.96834356
Sb 18.81584192 2.43743775 166.86599103
Te 18.81135889 4.90693439 168.55395878
Te 20.95531137 3.64694837 171.27549008
Sb 20.95082819 6.11644548 172.96341776
Te 23.09597113 4.86203808 174.86427059
Sb 20.94752416 3.60975624 176.76178005
Te 20.94303146 6.07924475 178.45014217
Te 18.79314041 4.82128415 181.16466052
Sb 18.78907247 7.29101677 182.85370389
Te 20.93369928 6.03632958 184.75451476
Sb 18.78523026 4.78389597 186.65386393
Te 18.78142304 7.25393537 188.32780684
Te 19.16632209 4.52407346 191.50700773
Sb 19.16723104 6.99684808 193.17528344
Te 21.30639699 5.73892586 195.08205439
Sb 19.16794746 4.49227084 197.00032482
Te 19.16875931 6.96485235 198.68323664
Te 19.21597915 9.45793017 201.41191028
Bi 17.01614622 8.17769443 203.05784001
Te 16.91414949 10.58809804 205.21884924
Bi 19.19643797 9.31124949 1.57210581
Te 17.10876250 8.09358123 3.46147503
Te 19.61747366 9.52650756 6.51083485
Bi 17.37506898 8.21620514 8.05697292
Te 17.20815827 10.58798735 10.28291333
Bi 19.50784112 9.42155619 12.19266292
Te 17.45359873 8.23437977 14.15203311
Te 19.57191277 9.14358016 17.20552694
Bi 17.32915439 7.82532707 18.74592959
Te 17.15075438 10.19357640 20.97840770
Bi 19.45776090 9.03373732 22.88052826
Te 17.40731331 7.84696327 24.84173660
Te 19.28966816 9.10275601 27.91844894
Bi 17.04053262 7.79150740 29.45672913
Te 16.85723827 10.15387044 31.69334062
Bi 19.16804015 8.99560204 33.59256629
Te 17.12074323 7.80482569 35.55542646
Te 18.99761019 9.06266053 38.63292348
Bi 16.75149246 7.74773068 40.17246033
Te 16.57132225 10.11152837 42.40713274
Bi 18.87929872 8.95031465 44.30971127
Te 16.82645695 7.76516344 46.27366159
Te 18.93763912 8.67205034 49.32924421
Bi 16.69695947 7.35056553 50.86993065
Te 16.52108346 9.71978524 53.10103968
Bi 18.82578537 8.55726898 55.00612745
Te 16.77048476 7.37573116 56.96892069
Te 18.88533954 8.28088097 60.02375712
Bi 16.64119946 6.96480729 61.56411432
Te 16.46268479 9.33321447 63.79680092
Bi 18.76960779 8.17302904 65.69939272
Te 16.72113701 6.98201489 67.65991386
Te 18.76903224 7.94604105 70.73376912
Bi 16.52037179 6.63984340 72.27715279
Te 16.34458583 9.00756644 74.50853502
Bi 18.64683151 7.84355445 76.41562978
Te 16.59759890 6.64723973 78.37794358
Te 19.03018328 8.03481548 81.40852811
Bi 16.81405999 6.74503211 83.01358660
Te 16.69642664 9.14620989 85.20245352
Bi 18.94371283 7.95044235 87.16736146
Te 16.85649375 6.73359011 89.07054718
Te 21.01965196 9.12254702 91.70379835
Bi 18.91360348 7.89502766 93.56366114
Te 18.96230279 10.39322678 95.59314190
Bi 21.05058064 9.10474181 97.69981333
Te 18.86647819 7.83309862 99.38293772
Te 16.76300575 6.60198419 102.09393020
Sb 16.75485618 9.06935406 103.78311287
Te 18.90263537 7.81651105 105.67698511
Sb 16.74874347 6.56114528 107.56431802
Te 16.74139821 9.02896699 109.25594315
Te 18.88824547 7.77064406 111.97936333
Sb 18.88435397 10.24048568 113.66680255
Te 21.02907847 8.98583128 115.56849013
Sb 18.88124301 7.73389882 117.46728064
Te 18.87716316 10.20363125 119.15475920
Te 16.72697621 8.94545952 121.87268061
Sb 16.72255827 11.41499398 123.56060239
Te 18.86765564 10.16055971 125.46146152
Sb 16.71926088 8.90831015 127.35923895
Te 16.71482401 11.37783344 129.04716160
Te 16.71535726 6.39777537 131.74312320
Sb 16.71088373 8.86727749 133.43109347
Te 18.85601996 7.61286638 135.33186108
Sb 16.70756124 6.36058030 137.22952251
Te 16.70308556 8.83008119 138.91749319
Te 18.84703658 7.57009470 141.63889983
Sb 18.84255466 10.03959182 143.32687763
Te 20.98769711 8.78518409 145.22763149
Sb 18.83922912 7.53289294 147.12527589
Te 18.83474761 10.00239022 148.81325412
Te 16.68509548 8.74452386 151.53155390
Sb 16.68061429 11.21402121 153.21953116
Te 18.82575632 9.95961361 155.12028610
Sb 16.67728885 8.70732279 157.01793108
Te 16.67280758 11.17682024 158.70590937
Te 16.67340246 6.19679677 161.40190719
Sb 16.66892027 8.66629386 163.08988765
Te 18.81406350 7.41188703 164.99063777
Sb 16.66559497 6.15959527 166.88828526
Te 16.66111216 8.62909166 168.57625308
Te 18.80506443 7.36910585 171.29778424
Sb 18.80058136 9.83860288 172.98571215
Te 20.94572430 8.58419535 174.88656478
Sb 18.79727726 7.33191368 176.78407440
Te 18.79278459 9.80140196 178.47243629
Te 16.64289355 8.54344149 181.18695465
Sb 16.63882557 11.01317416 182.87599817
Te 18.78345251 9.75848676 184.77680897
Sb 16.63498351 8.50605311 186.67615820
Te 16.63117622 10.97609254 188.35010118
Te 17.01607507 8.24623126 191.52930169
Sb 17.01698405 10.71900541 193.19757789
Te 19.15615011 9.46108315 195.10434850
Sb 17.01770057 8.21442814 197.02261892
Te 17.01851253 10.68700943 198.70553086
Te 17.06573220 13.18008750 201.43420456
Bi 14.86589937 11.89985178 203.08013426
Te 14.76390285 14.31025505 205.24114367
Bi 17.04619132 13.03340692 1.59440051
Te 14.95851570 11.81573823 3.48376936
Te 17.46722706 13.24866510 6.53312927
Bi 15.22482235 11.93836263 8.07926712
Te 15.05791170 14.31014468 10.30520796
Bi 17.35759445 13.14371327 12.21495758
Te 15.30335211 11.95653670 14.17432739
Te 17.42166597 12.86573769 17.22782124
Bi 15.17890760 11.54748456 18.76822401
Te 15.00050775 13.91573345 21.00070223
Bi 17.30751446 12.75589460 22.90282304
Te 15.25706667 11.56912017 24.86403113
Te 17.13942145 12.82491359 27.94074348
Bi 14.89028576 11.51366487 29.47902335
Te 14.70699153 13.87602762 31.71563509
Bi 17.01779340 12.71775899 33.61486066
Te 14.97049650 11.52698241 35.57772084
Te 16.84736325 12.78481806 38.65521782
Bi 14.60124567 11.46988802 40.19475436
Te 14.42107555 13.83368543 42.42942722
Bi 16.72905195 12.67247161 44.33200567
Te 14.67621019 11.48732028 46.29595585
Te 16.78739253 12.39420781 49.35153835
Bi 14.54671264 11.07272298 50.89222473
Te 14.37083672 13.44194240 53.12333417
Bi 16.67553889 12.27942612 55.02842176
Te 14.62023805 11.09788803 56.99121478
Te 16.73509266 12.00303848 60.04605140
Bi 14.49095255 10.68696478 61.58640856
Te 14.31243790 13.05537166 63.81909525
Bi 16.61936097 11.89518618 65.72168703
Te 14.57089037 10.70417198 67.68220811
Te 16.61878538 11.66819880 70.75606345
Bi 14.37012495 10.36200095 72.29944696
Te 14.19433883 12.72972342 74.53082945
Bi 16.49658459 11.56571165 76.43792398
Te 14.44735219 10.36939688 78.40023794
Te 16.87993646 11.75697292 81.43082243
Bi 14.66381323 10.46718955 83.03588112
Te 14.54617993 12.86836737 85.22474785
Bi 16.79346607 11.67259957 87.18965558
Te 14.70624698 10.45574745 89.09284143
Te 18.86940510 12.84470424 91.72609287
Bi 16.76335660 11.61718483 93.58595570
Te 16.81205623 14.11538394 95.61543649
Bi 18.90033395 12.82689901 97.72210793
Te 16.71623129 11.55525586 99.40523228
Te 14.61275902 10.32414148 102.11622476
Sb 14.60460929 12.79151133 103.80540744
Te 16.75238850 11.53866835 105.69927959
Sb 14.59849667 10.28330264 107.58661250
Te 14.59115151 12.75112411 109.27823781
Te 16.73799868 11.49280128 112.00165769
Sb 16.73410727 13.96264282 113.68909710
Te 18.87883175 12.70798855 115.59078480
Sb 16.73099623 11.45605601 117.48957503
Te 16.72691643 13.92578848 119.17705382
Te 14.57672938 12.66761679 121.89497517
Sb 14.57231166 15.13715102 123.58289705
Te 16.71740897 13.88271687 125.48375613
Sb 14.56901422 12.63046736 127.38153359
Te 14.56457749 15.09999048 129.06945641
Te 14.56511039 10.11993258 131.76541737
Sb 14.56063707 12.58943466 133.45338798
Te 16.70577327 11.33502366 135.35415555
Sb 14.55731445 10.08273773 137.25181690
Te 14.55283893 12.55223842 138.93978781
Te 16.69678978 11.29225191 141.66119426
Sb 16.69230798 13.76174895 143.34917214
Te 18.83745035 12.50734131 145.24992603
Sb 16.68898242 11.25505016 147.14757042
Te 16.68450105 13.72454718 148.83554869
Te 14.53484863 12.46668103 151.55384826
Sb 14.53036742 14.93617859 153.24182569
Te 16.67550952 13.68177073 155.14258064
Sb 14.52704210 12.42947998 157.04022578
Te 14.52256097 14.89897743 158.72820406
Te 14.52315560 9.91895420 161.42420147
Sb 14.51867348 12.38845104 163.11218200
Te 16.66381675 11.13404427 165.01293212
Sb 14.51534822 9.88175260 166.91057960
Te 14.51086529 12.35124900 168.59854762
Te 16.65481756 11.09126309 171.32007866
Sb 16.65033463 13.56075993 173.00800656
Te 18.79547755 12.30635261 174.90885922
Sb 16.64703038 11.05407080 176.80636851
Te 16.64253784 13.52355903 178.49473078
Te 14.49264668 12.26559885 181.20924901
Sb 14.48857905 14.73533124 182.89829284
Te 16.63320583 13.48064391 184.79910347
Sb 14.48473688 12.22821023 186.69845247
Te 14.48092960 14.69824943 188.37239572
Te 14.86582827 11.96838862 191.55159601
Sb 14.86673720 14.44116274 193.21987245
Te 17.00590351 13.18324043 195.12664287
Sb 14.86745376 11.93658543 197.04491303
Te 14.86826571 14.40916663 198.72782534
Te 14.91548543 16.90224470 201.45649917
Bi 12.71565256 15.62200891 203.10242906
Te 12.61365633 18.03241233 205.26343834
Bi 14.89594482 16.75556393 1.61669499
Te 12.80826911 15.53789545 3.50606388
Te 15.31698047 16.97082226 6.55542419
Bi 13.07457588 15.66052001 8.10156185
Te 12.90766531 18.03230169 10.32750273
Bi 15.20734805 16.86587039 12.23725238
Te 13.15310575 15.67869379 14.19662221
Te 15.27141932 16.58789517 17.25011614
Bi 13.02866098 15.26964185 18.79051893
Te 12.85026137 17.63789074 21.02299719
Bi 15.15726795 16.47805163 22.92511784
Te 13.10682012 15.29127719 24.88632590
Te 14.98917482 16.54707094 27.96303816
Bi 12.74003914 15.23582210 29.50131797
Te 12.55674503 17.59818483 31.73793005
Bi 14.86754692 16.43991585 33.63715544
Te 12.82025000 15.24913923 35.60001553
Te 14.69711655 16.50697556 38.67751261
Bi 12.45099885 15.19204552 40.21704912
Te 12.27082884 17.55584263 42.45172196
Bi 14.57880542 16.39462867 44.35430027
Te 12.52596362 15.20947721 46.31825055
Te 14.63714576 16.11636522 49.37383298
Bi 12.39646600 14.79488038 50.91451921
Te 12.22059005 17.16409947 53.14562893
Bi 14.52529219 16.00158334 55.05071617
Te 12.46999142 14.82004491 57.01350946
Te 14.58484608 15.72519585 60.06834601
Bi 12.34070578 14.40912202 61.60870311
Te 12.16219109 16.77752870 63.84138994
Bi 14.46911433 15.61734305 65.74398157
Te 12.42064360 14.42632907 67.70450268
Te 14.46853850 15.39035605 70.77835800
Bi 12.21987802 14.08415825 72.32174148
Te 12.04409201 16.45188062 74.55312409
Bi 14.34633788 15.28786862 76.46021864
Te 12.29710544 14.09155377 78.42253235
Te 14.72968978 15.47913006 81.45311696
Bi 12.51356636 14.18934674 83.05817535
Te 12.39593333 16.59052427 85.24704260
Bi 14.64321954 15.39475657 87.21195035
Te 12.55600041 14.17790437 89.11513599
Te 16.71915850 16.56686123 91.74838747
Bi 14.61311003 15.33934196 93.60825048
Te 14.66180970 17.83754122 95.63773120
Bi 16.75008732 16.54905597 97.74440259
Te 14.56598468 15.27741289 99.42752692
Te 12.46251235 14.04629861 102.13851929
Sb 12.45436255 16.51366844 103.82770200
Te 14.60214186 15.26082550 105.72157421
Sb 12.44824999 14.00545980 107.60890698
Te 12.44090492 16.47328125 109.30053246
Te 14.58775181 15.21495861 112.02395221
Sb 14.58386062 17.68479991 113.71139191
Te 16.72858504 16.43014564 115.61307943
Sb 14.58074949 15.17821335 117.51186961
Te 14.57666980 17.64794553 119.19934846
Te 12.42648262 16.38977390 121.91726979
Sb 12.42206506 18.85930813 123.60519166
Te 14.56716229 17.60487399 125.50605084
Sb 12.41876758 16.35262436 127.40382831
Te 12.41433075 18.82214756 129.09175105
Te 12.41486377 13.84208989 131.78771176
Sb 12.41039040 16.31159175 133.47568244
Te 14.55552663 15.05718073 135.37645003
Sb 12.40706782 13.80489485 137.27411140
Te 12.40259230 16.27439553 138.96208229
Te 14.54654300 15.01440919 141.68348885
Sb 14.54206152 17.48390606 143.37146687
Te 16.68720371 16.22949846 145.27222077
Sb 14.53873577 14.97720731 147.16986519
Te 14.53425453 17.44670450 148.85784342
Te 12.38460196 16.18883824 151.57614282
Sb 12.38012088 18.65833562 153.26412042
Te 14.52526287 17.40392801 155.16487539
Sb 12.37679543 16.15163717 157.06252001
Te 12.37231439 18.62113446 158.75049881
Te 12.37290898 13.64111160 161.44649594
Sb 12.36842682 16.11060838 163.13447660
Te 14.51357013 14.85620144 165.03522657
Sb 12.36510135 13.60390984 166.93287421
Te 12.36061870 16.07340620 168.62084219
Te 14.50457086 14.81342042 171.34237307
Sb 14.50008805 17.28291734 173.03030130
Te 16.64523094 16.02850973 174.93115387
Sb 14.49678362 14.77622795 176.82866313
Te 14.49229133 17.24571623 178.51702553
Te 12.34240023 15.98775619 181.23154358
Sb 12.33833258 18.45748816 182.92058732
Te 14.48295922 17.20280097 184.82139808
Sb 12.33449029 15.95036729 186.72074698
Te 12.33068310 18.42040638 188.39469038
Te 12.71558158 15.69054601 191.57389048
Sb 12.71649058 18.16332009 193.24216697
Te 14.85565678 16.90539780 195.14893753
Sb 12.71720704 15.65874260 197.06720773
Te 12.71801912 18.13132386 198.75011999
Te 12.76523897 20.62440198 201.47879399
Bi 10.56540614 19.34416604 203.12472375
Te 10.46340970 21.75456919 205.28573319
Bi 12.74569819 20.47772106 1.63898998
Te 10.65802250 19.26005218 3.52835874
Te 13.16673429 20.69297955 6.57771903
Bi 10.92432949 19.38267713 8.12385673
Te 10.75741883 21.75445863 10.34979772
Bi 13.05710157 20.58802734 12.25954760
Te 11.00285909 19.40085050 14.21891722
Te 13.12117272 20.31005240 17.27241111
Bi 10.87841456 18.99179909 18.81281391
Te 10.70001489 21.36004788 21.04529230
Bi 13.00702163 20.20020876 22.94741304
Te 10.95657377 19.01343408 24.90862089
Te 12.83892810 20.26922827 27.98533323
Bi 10.58979253 18.95797941 29.52361322
Te 10.40649851 21.32034205 31.76022533
Bi 12.71730041 20.16207297 33.65945056
Te 10.67000360 18.97129625 35.62231067
Te 12.54687006 20.22913292 38.69980759
Bi 10.30075240 18.91420293 40.23934401
Te 10.12058245 21.27799965 42.47401713
Bi 12.42855904 20.11678573 44.37659524
Te 10.37571736 18.93163390 46.34054532
Te 12.48689930 19.83852274 49.39612792
Bi 10.24621942 18.51703764 50.93681400
Te 10.07034347 20.88625639 53.16792396
Bi 12.37504566 19.72374022 55.07301126
Te 10.31974495 18.54220169 57.03580452
Te 12.43459935 19.44735325 60.09064093
Bi 10.19045912 18.13127935 61.63099779
Te 10.01194464 20.49968574 63.86368503
Bi 12.31886775 19.33949991 65.76627639
Te 10.27039716 18.14848584 67.72679756
Te 12.31829185 19.11251324 70.80065272
Bi 10.06963121 17.80631535 72.34403602
Te 9.89384538 20.17403774 74.57541888
Bi 12.19609121 19.01002572 76.48251338
Te 10.14685879 17.81371083 78.44482717
Te 12.57944313 19.20128713 81.47541154
Bi 10.36331984 17.91150377 83.08047016
Te 10.24568684 20.31268131 85.26933733
Bi 12.49297294 19.11691351 87.23424507
Te 10.40575376 17.90006119 89.13743072
Te 14.56891172 20.28901839 91.77068222
Bi 12.46286334 19.06149901 93.63054513
Te 12.51156298 21.55969806 95.66002597
Bi 14.59984065 20.27121309 97.76669733
Te 12.41573801 18.99956990 99.44982143
Te 10.31226563 17.76845588 102.16081394
Sb 10.30411602 20.23582555 103.84999664
Te 12.45189511 18.98298258 105.74386887
Sb 10.29800342 17.72761683 107.63120171
Te 10.29065834 20.19543829 109.32282717
Te 12.43750532 18.93711563 112.04624691
Sb 12.43361415 21.40695700 113.73368652
Te 14.57833842 20.15230266 115.63537424
Sb 12.43050297 18.90037041 117.53416422
Te 12.42642334 21.37010252 119.22164321
Te 10.27623620 20.11193094 121.93956460
Sb 10.27181849 22.58146511 123.62748650
Te 12.41691566 21.32703106 125.52834556
Sb 10.26852100 20.07478145 127.42612304
Te 10.26408432 22.54430474 129.11404579
Te 10.26461711 17.56424684 131.81000625
Sb 10.26014388 20.03374871 133.49797703
Te 12.40528009 18.77933789 135.39874462
Sb 10.25682126 17.52705207 137.29640600
Te 10.25234574 19.99655257 138.98437694
Te 12.39629657 18.73656636 141.70578352
Sb 12.39181490 21.20606323 143.39376165
Te 14.53695711 19.95165556 145.29451542
Sb 12.38848917 18.69936445 147.19215993
Te 12.38400791 21.16886139 148.88013816
Te 10.23435544 19.91099543 151.59843735
Sb 10.22987424 22.38049263 153.28641501
Te 12.37501639 21.12608514 155.18716998
Sb 10.22654883 19.87379412 157.08481467
Te 10.22206782 22.34329142 158.77279345
Te 10.22266236 17.36326876 161.46879045
Sb 10.21818026 19.83276546 163.15677125
Te 12.36332349 18.57835857 165.05752116
Sb 10.21485475 17.32606707 166.95516874
Te 10.21037221 19.79556343 168.64313706
Te 12.35432422 18.53557755 171.36466767
Sb 12.34984146 21.00507441 173.05259585
Te 14.49498435 19.75066691 174.95344861
Sb 12.34653712 18.49838519 176.85095789
Te 12.34204471 20.96787325 178.53932026
Te 10.19215371 19.70991325 181.25383820
Sb 10.18808601 22.17964518 182.94288208
Te 12.33271259 20.92495805 184.84369278
Sb 10.18424371 19.67252431 186.74304190
Te 10.18043659 22.14256309 188.41698503
Te 10.56533503 19.41270344 191.59618513
Sb 10.56624404 21.88547736 193.26446176
Te 12.70541029 20.62755481 195.17123217
Sb 10.56696050 19.38089988 197.08950234
Te 10.56777256 21.85348084 198.77241477
Te 10.61499241 24.34655894 201.50108894
Bi 8.41515962 23.06632313 203.14701863
Te 8.31316336 25.47672626 205.30802816
Bi 10.59545163 24.19987798 1.66128479
Te 8.50777609 22.98220924 3.55065367
Te 11.01648780 24.41513673 6.60001404
Bi 8.77408294 23.10483421 8.14615200
Te 8.60717240 25.47661587 10.37209284
Bi 10.90685535 24.31018455 12.28184248
Te 8.85261287 23.12300757 14.24121216
Te 10.97092629 24.03220946 17.29470635
Bi 8.72816805 22.71395622 18.83510904
Te 8.54976853 25.08220500 21.06758760
Bi 10.85677526 23.92236585 22.96970841
Te 8.80632744 22.73559109 24.93091619
Te 10.68868178 23.99138533 28.00762841
Bi 8.43954608 22.68013652 29.54590832
Te 8.25625212 25.04249919 31.78252055
Bi 10.56705403 23.88423022 33.68174598
Te 8.51975716 22.69345303 35.64460581
Te 10.39662368 23.95129013 38.72210274
Bi 8.15050588 22.63636009 40.26163919
Te 7.97033600 25.00015665 42.49631251
Bi 10.27831263 23.83894281 44.39889055
Te 8.22547093 22.65379089 46.36284046
Te 10.33665285 23.56067959 49.41842324
Bi 8.09597293 22.23919478 50.95910916
Te 7.92009698 24.60841351 53.19021933
Bi 10.22479918 23.44589713 55.09530647
Te 8.16949832 22.26435858 57.05809955
Te 10.28435282 23.16951003 60.11293587
Bi 8.04021246 21.85343644 61.65329291
Te 7.86169827 24.22184286 63.88598013
Bi 10.16862134 23.06165706 65.78857147
Te 8.12015073 21.87064274 67.74909261
Te 10.16804528 22.83467043 70.82294769
Bi 7.91938461 21.52847271 72.36633087
Te 7.74359905 23.89619509 74.59771387
Bi 10.04584461 22.73218270 76.50480825
Te 7.99661220 21.53586774 78.46712196
Te 10.42919660 22.92344427 81.49770640
Bi 8.21307330 21.63366090 83.10276488
Te 8.09544022 24.03483820 85.29163212
Bi 10.34272643 22.83907051 87.25653991
Te 8.25550732 21.62221827 89.15972554
Te 12.41866537 24.01117529 91.79297692
Bi 10.31261683 22.78365594 93.65283973
Te 10.36131645 25.28185502 95.68232062
Bi 12.44959396 23.99337008 97.78899198
Te 10.26549144 22.72172688 99.47211629
Te 8.16201900 21.49061274 102.18310856
Sb 8.15386947 23.95798267 103.87229123
Te 10.30164859 22.70513954 105.76616353
Sb 8.14775683 21.44977389 107.65349649
Te 8.14041183 23.91759536 109.34512191
Te 10.28725864 22.65927279 112.06854169
Sb 10.28336755 25.12911403 113.75598133
Te 12.42809189 23.87445970 115.65766886
Sb 10.28025638 22.62252741 117.55645915
Te 10.27617671 25.09225957 119.24393790
Te 8.12598963 23.83408807 121.96185921
Sb 8.12157194 26.30362224 123.64978121
Te 10.26666918 25.04918811 125.55064026
Sb 8.11827447 23.79693860 127.44841770
Te 8.11383773 26.26646174 129.13634051
Te 8.11437059 21.28640392 131.83230086
Sb 8.10989722 23.75590580 133.52027170
Te 10.25503346 22.50149487 135.42103928
Sb 8.10657466 21.24920896 137.31870062
Te 8.10209925 23.71870936 139.00667151
Te 10.24604993 22.45872330 141.72807820
Sb 10.24156839 24.92822017 143.41605631
Te 12.38671059 23.67381263 145.31681016
Sb 10.23824260 22.42152150 147.21445463
Te 10.23376138 24.89101844 148.90243302
Te 8.08410875 23.63315253 151.62073200
Sb 8.07962769 26.10264984 153.30870976
Te 10.22476969 24.84824206 155.20946474
Sb 8.07630223 23.59595130 157.10710933
Te 8.07182114 26.06544853 158.79508814
Te 8.07241569 21.08542584 161.49108511
Sb 8.06793366 23.55492241 163.17906594
Te 10.21307685 22.30051564 165.07981593
Sb 8.06460823 21.04822404 166.97746347
Te 8.06012557 23.51772039 168.66543169
Te 10.20407753 22.25773485 171.38696236
Sb 10.19959497 24.72723152 173.07489071
Te 12.34473778 23.47282398 174.97574341
Sb 10.19629044 22.22054227 176.87325263
Te 10.19179813 24.69003018 178.56161505
Te 8.04190704 23.43207030 181.27613308
Sb 8.03783946 25.90180227 182.96517692
Te 10.18246601 24.64711499 184.86598764
Sb 8.03399715 23.39468117 186.76533658
Te 8.03019004 25.86472007 188.43928000
Te 8.41508854 23.13486055 191.61847995
Sb 8.41599746 25.60763447 193.28675673
Te 10.55516369 24.34971202 195.19352716
Sb 8.41671401 23.10305697 197.11179719
Te 8.41752597 25.57563799 198.79470981
Te 8.46474604 28.06871620 201.52338397
Bi 6.26491321 26.78848018 203.16931344
Te 6.16291668 29.19888330 205.33032318
Bi 8.44520510 27.92203492 1.68357990
Te 6.35752958 26.70436606 3.57294875
Te 8.86624138 28.13729371 6.62230919
Bi 6.62383652 26.82699124 8.16844711
Te 6.45692611 29.19877295 10.39438813
Bi 8.75660878 28.03234154 12.30413786
Te 6.70236644 26.84516470 14.26350741
Te 8.82067994 27.75436656 17.31700148
Bi 6.57792176 26.43611328 18.85740435
Te 6.39952200 28.80436204 21.08988277
Bi 8.70652893 27.64452308 22.99200355
Te 6.65608098 26.45774816 24.95321136
Te 8.53843521 27.71354261 28.02992376
Bi 6.28929964 26.40229367 29.56820361
Te 6.10600566 28.76465622 31.80481584
Bi 8.41680753 27.60638733 33.70404122
Te 6.36951072 26.41561008 35.66690119
Te 8.24637733 27.67344715 38.74439800
Bi 6.00025949 26.35851711 40.28393463
Te 5.82008966 28.72231380 42.51860773
Bi 8.12806621 27.56109977 44.42118594
Te 6.07522440 26.37594781 46.38513585
Te 8.18640621 27.28283677 49.44071840
Bi 5.94572634 25.96135177 50.98140443
Te 5.76985049 28.33057049 53.21251466
Bi 8.07455273 27.16805418 55.11760179
Te 6.01925187 25.98651534 57.08039478
Te 8.13410638 26.89166729 60.13523089
Bi 5.88996592 25.57559340 61.67558822
Te 5.71145184 27.94399985 63.90827529
Bi 8.01837481 26.78381396 65.81086665
Te 5.96990419 25.59279973 67.77138765
Te 8.01779876 26.55682754 70.84524269
Bi 5.76913809 25.25062978 72.38862592
Te 5.59335264 27.61835216 74.62000879
Bi 7.89559824 26.45433979 76.52710329
Te 5.84636569 25.25802475 78.48941692
Te 8.27895001 26.64560127 81.52000138
Bi 6.06282680 25.35581788 83.12505992
Te 5.94519350 27.75699525 85.31392716
Bi 8.19247997 26.56122744 87.27883468
Te 6.10526070 25.34437514 89.18202033
Te 10.26841872 27.73333249 91.81527162
Bi 8.16237038 26.50581285 93.67513444
Te 8.21106986 29.00401202 95.70461525
Bi 10.29934738 27.71552707 97.81128663
Te 8.11524480 26.44388380 99.49441080
Te 6.01177253 25.21276994 102.20540328
Sb 6.00362297 27.68013960 103.89458606
Te 8.15140209 26.42729665 105.78845815
Sb 5.99751028 25.17193110 107.67579124
Te 5.99016523 27.63975222 109.36741656
Te 8.13701205 26.38142977 112.09083648
Sb 8.13312092 28.85127111 113.77827613
Te 10.27784532 27.59661671 115.67996358
Sb 8.13000982 26.34468445 117.57875372
Te 8.12593023 28.81441658 119.26623270
Te 5.97574296 27.55624518 121.98415397
Sb 5.97132537 30.02577928 123.67207601
Te 8.11642262 28.77134509 125.57293503
Sb 5.96802788 27.51909560 127.47071239
Te 5.96359117 29.98861871 129.15863520
Te 5.96412394 25.00856099 131.85459563
Sb 5.95965059 27.47806281 133.54256643
Te 8.10478696 26.22365193 135.44333399
Sb 5.95632811 24.97136599 137.34099530
Te 5.95185270 27.44086641 139.02896624
Te 8.09580344 26.18088042 141.75037300
Sb 8.09132175 28.65037727 143.43835110
Te 10.23646403 27.39596957 145.33910489
Sb 8.08799608 26.14367858 147.23674948
Te 8.08351479 28.61317565 148.92472753
Te 5.93386227 27.35530953 151.64302672
Sb 5.92938115 29.82480686 153.33100455
Te 8.07452315 28.57039920 155.23175944
Sb 5.92605572 27.31810827 157.12940417
Te 5.92157463 29.78760556 158.81738284
Te 5.92216917 24.80758292 161.51337984
Sb 5.91768720 27.27707953 163.20136062
Te 8.06283040 26.02267266 165.10211060
Sb 5.91436166 24.77038106 166.99975808
Te 5.90987908 27.23987732 168.68772638
Te 8.05383122 25.97989180 171.40925711
Sb 8.04934841 28.44938842 173.09718566
Te 10.19449133 27.19498106 174.99803831
Sb 8.04604398 25.94269928 176.89554736
Te 8.04155168 28.41218730 178.58390994
Te 5.89166043 27.15422732 181.29842793
Sb 5.88759282 29.62395925 182.98747189
Te 8.03221945 28.36927201 184.88828259
Sb 5.88375060 27.11683826 186.78763163
Te 5.87994354 29.58687704 188.46157491
Te 6.26484197 26.85701744 191.64077484
Sb 6.26575097 29.32979131 193.30905149
Te 8.40491724 28.07186918 195.21582206
Sb 6.26646746 26.82521396 197.13409201
Te 6.26727961 29.29779482 198.81700462
Te 6.31449936 31.79087284 201.54567883
Bi 4.11466661 30.51063707 203.19160851
Te 4.01267021 32.92104018 205.35261810
Bi 6.29495870 31.64419206 1.70587484
Te 4.20728301 30.42652327 3.59524369
Te 6.71599481 31.85945065 6.64460413
Bi 4.47359007 30.54914833 8.19074213
Te 4.30667954 32.92092998 10.41668306
Bi 6.60636222 31.75449871 12.32643288
Te 4.55211983 30.56732180 14.28580258
Te 6.67043347 31.47652359 17.33929667
Bi 4.42767527 30.15827031 18.87969950
Te 4.24927553 32.52651906 21.11217786
Bi 6.55628230 31.36668008 23.01429867
Te 4.50583445 30.17990538 24.97550647
Te 6.38818889 31.43569955 28.05221890
Bi 4.13905317 30.12445067 29.59049881
Te 3.95575923 32.48681329 31.82711095
Bi 6.26656114 31.32854439 33.72633644
Te 4.21926446 30.13776742 35.68919639
Te 6.09613092 31.39560419 38.76669334
Bi 3.85001318 30.08067425 40.30622984
Te 3.66984318 32.44447094 42.54090293
Bi 5.97781984 31.28325685 44.44348101
Te 3.92497808 30.09810496 46.40743107
Te 6.03615975 31.00499357 49.46301368
Bi 3.79547988 29.68350867 51.00369992
Te 3.61960409 32.05272757 53.23480993
Bi 5.92430610 30.89021108 55.13989720
Te 3.86900534 29.70867244 57.10269015
Te 5.98385984 30.61382414 60.15752613
Bi 3.73971953 29.29775044 61.69788324
Te 3.56120530 31.66615684 63.93057037
Bi 5.86812833 30.50597101 65.83316183
Te 3.81965765 29.31495671 67.79368272
Te 5.86755224 30.27898448 70.86753771
Bi 3.61889165 28.97278683 72.41092099
Te 3.44310617 31.34050923 74.64230391
Bi 5.74535185 30.17649686 76.54939841
Te 3.69611929 28.98018162 78.51171188
Te 6.12870354 30.36775833 81.54229618
Bi 3.91258011 29.07797468 83.14735458
Te 3.79494719 31.47915204 85.33622184
Bi 6.04223338 30.28338454 87.30112958
Te 3.95501414 29.06653221 89.20431526
Te 8.11817227 31.45548954 91.83756638
Bi 6.01212382 30.22796994 93.69742907
Te 6.06082329 32.72616901 95.72690994
Bi 8.14910101 31.43768422 97.83358138
Te 5.96499845 30.16604084 99.51670567
Te 3.86152600 28.93492696 102.22769800
Sb 3.85337645 31.40229668 103.91688072
Te 6.00115556 30.14945372 105.81075296
Sb 3.84726381 28.89408789 107.69808591
Te 3.83991865 31.36190935 109.38971135
Te 5.98676560 30.10358679 112.11313113
Sb 5.98287448 32.57342816 113.80057077
Te 8.12759885 31.31877382 115.70225836
Sb 5.97976332 30.06684141 117.60104856
Te 5.97568352 32.53657371 119.28852739
Te 3.82549636 31.27840222 122.00644860
Sb 3.82107884 33.74793634 123.69437051
Te 5.96617603 32.49350222 125.59522972
Sb 3.81778146 31.24125262 127.49300713
Te 3.81334455 33.71077585 129.18092985
Te 3.81387728 28.73071818 131.87689032
Sb 3.80940414 31.20021995 133.56486125
Te 5.95454044 29.94580888 135.46562873
Sb 3.80608156 28.69352291 137.36329003
Te 3.80160614 31.16302356 139.05126095
Te 5.94555685 29.90303732 141.77266776
Sb 5.94107514 32.37253420 143.46064576
Te 8.08621737 31.11812675 145.36139962
Sb 5.93774959 29.86583562 147.25904389
Te 5.93326814 32.33533264 148.94702227
Te 3.78361569 31.07746668 151.66532148
Sb 3.77913453 33.54696403 153.35329913
Te 5.92427657 32.29255627 155.25405402
Sb 3.77580917 31.04026534 157.15169890
Te 3.77132821 33.50976268 158.83967748
Te 3.77192262 28.52973992 161.53567451
Sb 3.76744068 30.99923651 163.22365540
Te 5.91258382 29.74482965 165.12440541
Sb 3.76411516 28.49253824 167.02205288
Te 3.75963263 30.96203458 168.71002116
Te 5.90358471 29.70204868 171.43155184
Sb 5.89910190 32.17154545 173.11948020
Te 8.04424486 30.91713812 175.02033295
Sb 5.89579746 29.66485633 176.91784221
Te 5.89130493 32.13434436 178.60620451
Te 3.74141389 30.87638447 181.32072295
Sb 3.73734626 33.34611642 183.00976683
Te 5.88197303 32.09142906 184.91057755
Sb 3.73350411 30.83899513 186.80992645
Te 3.72969691 33.30903414 188.48386978
Te 4.11459549 30.57917446 191.66306971
Sb 4.11550449 33.05194830 193.33134658
Te 6.25467081 31.79402606 195.23811702
Sb 4.11622105 30.54737106 197.15638726
Te 4.11703316 33.01995197 198.83929958
Te 4.16425297 35.51303008 201.56797375
Bi 1.96442025 34.23279413 203.21390345
Te 1.86242350 36.64319723 205.37491297
Bi 4.14471207 35.36634906 1.72816971
Te 2.05703661 34.14868021 3.61753856
Te 4.56574826 35.58160784 6.66689902
Bi 2.32334362 34.27130537 8.21303700
Te 2.15643285 36.64308699 10.43897788
Bi 4.45611567 35.47665586 12.34872788
Te 2.40187316 34.28947898 14.30809763
Te 4.52018704 35.19868047 17.36159161
Bi 2.27742869 33.88042727 18.90199428
Te 2.09902898 36.24867599 21.13447277
Bi 4.40603581 35.08883727 23.03659340
Te 2.35558809 33.90206262 24.99780146
Te 4.23794244 35.15785628 28.07451399
Bi 1.98880671 33.84660764 29.61279401
Te 1.80551247 36.20897038 31.84940592
Bi 4.11631448 35.05070155 33.74863131
Te 2.06901779 33.85992466 35.71149160
Te 3.94588450 35.11776099 38.78898834
Bi 1.69976674 33.80283103 40.32852500
Te 1.51959672 36.16662798 42.56319794
Bi 3.82757333 35.00541396 44.46577619
Te 1.77473185 33.82026212 46.42972616
Te 3.88591321 34.72715055 49.48530887
Bi 1.64523337 33.40566567 51.02599511
Te 1.46935741 35.77488457 53.25710501
Bi 3.77405964 34.61236833 55.16219229
Te 1.71875882 33.43082951 57.12498546
Te 3.83361342 34.33598131 60.17982127
Bi 1.58947315 33.01990755 61.72017835
Te 1.41095875 35.38831410 63.95286530
Bi 3.71788188 34.22812816 65.85545676
Te 1.66941119 33.03711386 67.81597779
Te 3.71730590 34.00114159 70.88983266
Bi 1.46864518 32.69494395 72.43321598
Te 1.29285968 35.06266630 74.66459895
Bi 3.59510532 33.89865390 76.57169331
Te 1.54587285 32.70233868 78.53400702
Te 3.97845702 34.08991545 81.56459108
Bi 1.76233380 32.80013194 83.16964970
Te 1.64470055 35.20130941 85.35851667
Bi 3.89198672 34.00554153 87.32342428
Te 1.80476768 32.78868927 89.22660998
Te 5.96792576 35.17764652 91.85986113
Bi 3.86187719 33.95012698 93.71972378
Te 3.91057676 36.44832607 95.74920459
Bi 5.99885440 35.15984131 97.85587592
Te 3.81475199 33.88819800 99.53900018
Te 1.71127944 32.65708398 102.24999267
Sb 1.70312992 35.12445365 103.93917552
Te 3.85090902 33.87161065 105.83304765
Sb 1.69701716 32.61624509 107.72038039
Te 1.68967213 35.08406656 109.41200585
Te 3.83651909 33.82574385 112.13542581
Sb 3.83262779 36.29558527 113.82286521
Te 5.97735212 35.04093090 115.72455300
Sb 3.82951672 33.78899853 117.62334317
Te 3.82543695 36.25873085 119.31082193
Te 1.67524989 35.00055916 122.02874333
Sb 1.67083219 37.47009348 123.71666517
Te 3.81592943 36.21565931 125.61752433
Sb 1.66753477 34.96340979 127.51530188
Te 1.66309790 37.43293307 129.20322457
Te 1.66363082 32.45287514 131.89918499
Sb 1.65915753 34.92237702 133.58715591
Te 3.80429378 33.66796604 135.48792337
Sb 1.65583495 32.41568003 137.38558472
Te 1.65135952 34.88518071 139.07355565
Te 3.79531032 33.62519446 141.79496243
Sb 3.79082857 36.09469132 143.48294020
Te 5.93597078 34.84028370 145.38369413
Sb 3.78750289 33.58799273 147.28133875
Te 3.78302155 36.05748982 148.96931684
Te 1.63336909 34.79962388 151.68761622
Sb 1.62888808 37.26912117 153.37559376
Te 3.77403011 36.01471344 155.27634872
Sb 1.62556267 34.76242258 157.17399356
Te 1.62108150 37.23191985 158.86197201
Te 1.62167600 32.25189707 161.55796925
Sb 1.61719409 34.72139353 163.24595007
Te 3.76233743 33.46698672 165.14670009
Sb 1.61386865 32.21469512 167.04434764
Te 1.60938586 34.68419149 168.73231579
Te 3.75333809 33.42420571 171.45384667
Sb 3.74885533 35.89370241 173.14177503
Te 5.89399827 34.63929509 175.04262768
Sb 3.74555088 33.38701337 176.94013680
Te 3.74105855 35.85650152 178.62849921
Te 1.59116740 34.59854155 181.34301794
Sb 1.58709966 37.06827349 183.03206175
Te 3.73172647 35.81358620 184.93287240
Sb 1.58325748 34.56115235 186.83222130
Te 1.57945023 37.03119140 188.50616455
Te 1.96434892 34.30133141 191.68536453
Sb 1.96525789 36.77410517 193.35364138
Te 4.10442417 35.51618303 195.26041188
Sb 1.96597455 34.26952792 197.17868204
Te 1.96678651 36.74210898 198.86159437
Te 2.01400646 39.23518703 201.59026844
Bi -0.18582640 37.95495122 203.23619824
Te -0.28782293 40.36535458 205.39720764
Bi 1.99446553 39.08850621 1.75046434
Te -0.09321018 37.87083774 3.63983335
Te 2.41550169 39.30376452 6.68919375
Bi 0.17309695 37.99346225 8.23533186
Te 0.00618607 40.36524444 10.46127249
Bi 2.30586887 39.19881309 12.37102219
Te 0.25162641 38.01163635 14.33039224
Te 2.36994052 38.92083724 17.38388626
Bi 0.12718217 37.60258416 18.92428911
Te -0.05121757 39.97083325 21.15676736
Bi 2.25578910 38.81099422 23.05888815
Te 0.20534119 37.62421991 25.02009625
Te 2.08769592 38.88001312 28.09680873
Bi -0.16143974 37.56876451 29.63508861
Te -0.34473393 39.93112729 31.87170059
Bi 1.96606790 38.77285877 33.77092633
Te -0.08122900 37.58208187 35.73378629
Te 1.79563800 38.83991795 38.81128315
Bi -0.45047971 37.52498792 40.35081978
Te -0.63064984 39.88878482 42.58549270
Bi 1.67732678 38.72757119 44.48807096
Te -0.37551477 37.54241933 46.45202121
Te 1.73566679 38.44930738 49.50760386
Bi -0.50501311 37.12782276 51.04829001
Te -0.68088900 39.49704173 53.27939975
Bi 1.62381291 38.33452533 55.18448731
Te -0.43148802 37.15298693 57.14728030
Te 1.68336696 38.05813822 60.20211611
Bi -0.56077330 36.74206466 61.74247313
Te -0.73928783 39.11047138 63.97516005
Bi 1.56763516 37.95028555 65.87775168
Te -0.48083547 36.75927104 67.83827266
Te 1.56705944 37.72329856 70.91212754
Bi -0.68160112 36.41710097 72.45551092
Te -0.85738667 38.78482334 74.68689361
Bi 1.44485888 37.62081111 76.59398821
Te -0.60437374 36.42449625 78.55630178
Te 1.82821026 37.81207242 81.58688581
Bi -0.38791294 36.52228896 83.19194420
Te -0.50554606 38.92346630 85.38081140
Bi 1.74174034 37.72769857 87.34571917
Te -0.34547899 36.51084660 89.24890481
Te 3.81767930 38.89980357 91.88215569
Bi 1.71163061 37.67228415 93.74201832
Te 1.76033013 40.17048326 95.77149911
Bi 3.84860780 38.88199817 97.87817047
Te 1.66450524 37.61035524 99.56129482
Te -0.43896718 36.37924101 102.27228731
Sb -0.44711669 38.84661085 103.96146998
Te 1.70066242 37.59376777 105.85534243
Sb -0.45322939 36.33840210 107.74267517
Te -0.46057472 38.80622365 109.43430043
Te 1.68627241 37.54790095 112.15772042
Sb 1.68238111 40.01774234 113.84515983
Te 3.82710558 38.76308801 115.74684745
Sb 1.67927005 37.51115569 117.64563777
Te 1.67519025 39.98088803 119.33311647
Te -0.47499668 38.72271620 122.05103792
Sb -0.47941452 41.19225075 123.73895968
Te 1.66568281 39.93781647 125.63981886
Sb -0.48271190 38.68556694 127.53759646
Te -0.48714872 41.15509026 129.22551903
Te -0.48661576 36.17503237 131.92147979
Sb -0.49108909 38.64453422 133.60945052
Te 1.65404717 37.39012308 135.51021803
Sb -0.49441166 36.13783716 137.40787946
Te -0.49888723 38.60733779 139.09585034
Te 1.64506362 37.34735145 141.81725692
Sb 1.64058196 39.81684844 143.50523477
Te 3.78572419 38.56244092 145.40598884
Sb 1.63725626 37.31014987 147.30363332
Te 1.63277497 39.77964695 148.99161131
Te -0.51687741 38.52178070 151.70991079
Sb -0.52135869 40.99127827 153.39788818
Te 1.62378332 39.73687044 155.29864314
Sb -0.52468391 38.48457974 157.19628826
Te -0.52916503 40.95407703 158.88426669
Te -0.52857039 35.97405393 161.58026394
Sb -0.53305262 38.44355077 163.26824475
Te 1.61209072 37.18914371 165.16899464
Sb -0.53637808 35.93685214 167.06664217
Te -0.54086071 38.40634850 168.75461033
Te 1.60309158 37.14636270 171.47614123
Sb 1.59860863 39.61585958 173.16406953
Te 3.74375156 38.36145212 175.06492230
Sb 1.59530433 37.10917047 176.96243154
Te 1.59081192 39.57865858 178.65079369
Te -0.55907911 38.32069850 181.36531264
Sb -0.56314696 40.79043073 183.05435645
Te 1.58147978 39.53574332 184.95516700
Sb -0.56698915 38.28330959 186.85451600
Te -0.57079648 40.75334880 188.52845923
Te -0.18589757 38.02348831 191.70765933
Sb -0.18498860 40.49626222 193.37593601
Te 1.95417770 39.23833996 195.28270661
Sb -0.18427205 37.99168485 197.20097682
Te -0.18346007 40.46426593 198.88388910
Te -0.13624023 42.95734418 201.61256299
Bi -2.33607307 41.67710829 203.25849264
Te -2.43806991 44.08751167 205.41950192
Bi -0.15578136 42.81066364 1.77275879
Te -2.24345681 41.59299472 3.66212775
Te 0.26525497 43.02592168 6.71148791
Bi -1.97714978 41.71561926 8.25762596
Te -2.14406081 44.08740147 10.48356668
Bi 0.15562204 42.92097052 12.39331678
Te -1.89862048 41.73379379 14.35268660
Te 0.21969375 42.64299414 17.40618076
Bi -2.02306451 41.32474113 18.94658370
Te -2.20146452 43.69299042 21.17906166
Bi 0.10554219 42.53315153 23.08118269
Te -1.94490571 41.34637715 25.04239079
Te -0.06255080 42.60216992 28.11910320
Bi -2.31168641 41.29092143 29.65738340
Te -2.49498067 43.65328448 31.89399483
Bi -0.18417875 42.49501597 33.79322045
Te -2.23147569 41.30423951 35.75608075
Te -0.35460857 42.56207476 38.83357782
Bi -2.60072626 41.24714487 40.37311463
Te -2.78089670 43.61094219 42.60778702
Bi -0.47292008 42.44972852 44.51036555
Te -2.52576181 41.26457712 46.47431593
Te -0.41458000 42.17146430 49.52989823
Bi -2.65525979 40.84997975 51.07058479
Te -2.83113569 43.21919904 53.30169417
Bi -0.52643384 42.05668257 55.20678192
Te -2.58173480 40.87514429 57.16957494
Te -0.46687952 41.78029520 60.22441066
Bi -2.71101986 40.46422161 61.76476769
Te -2.88953433 42.83262840 63.99745457
Bi -0.58261126 41.67244289 65.90004648
Te -2.63108217 40.48142848 67.86056741
Te -0.58318704 41.44545561 70.93442217
Bi -2.83184752 40.13925813 72.47780568
Te -3.00763338 42.50698053 74.70918816
Bi -0.70538766 41.34296833 76.61628278
Te -2.75462018 40.14665350 78.57859658
Te -0.32203627 41.53422957 81.60918027
Bi -2.53815944 40.24444605 83.21423899
Te -2.65579269 42.64562359 85.40310582
Bi -0.40850639 41.44985599 87.36801352
Te -2.49572573 40.23300383 89.27119921
Te 1.66743239 42.62196095 91.90445023
Bi -0.43861611 41.39444135 93.76431273
Te -0.38991656 43.89264061 95.79379352
Bi 1.69836104 42.60415555 97.90046494
Te -0.48574144 41.33251246 99.58358920
Te -2.58921384 40.10139818 102.29458181
Sb -2.59736347 42.56876808 103.98376432
Te -0.44958434 41.31592508 105.87763687
Sb -2.60347618 40.06055938 107.76496954
Te -2.61082144 42.52838098 109.45659490
Te -0.46397425 41.27005812 112.18001494
Sb -0.46786572 43.73989967 113.86745428
Te 1.67685877 42.48524531 115.76914182
Sb -0.47097666 41.23331288 117.66793215
Te -0.47505651 43.70304530 119.35541068
Te -2.62524351 42.44487334 122.07333229
Sb -2.62966140 44.91440787 123.76125398
Te -0.48456405 43.65997379 125.66211325
Sb -2.63295867 42.40772413 127.55989089
Te -2.63739571 44.87724768 129.24781324
Te -2.63686238 39.89718956 131.94377450
Sb -2.64133580 42.36669140 133.63174520
Te -0.49619956 41.11228024 135.53251265
Sb -2.64465837 39.85999429 137.43017406
Te -2.64913392 42.32949494 139.11814495
Te -0.50518298 41.06950841 141.83955148
Sb -0.50966477 43.53900557 143.52752923
Te 1.63547748 42.28459810 145.42828331
Sb -0.51299036 41.03230707 147.32592780
Te -0.51747181 43.50180419 149.01390564
Te -2.66712417 42.24393807 151.73220540
Sb -2.67160529 44.71343558 153.42018273
Te -0.52646330 43.45902778 155.32093766
Sb -2.67493065 42.20673688 157.21858269
Te -2.67941179 44.67623442 158.90656091
Te -2.67881728 39.69621116 161.60255853
Sb -2.68329914 42.16570781 163.29053933
Te -0.53815598 40.91130097 165.19128932
Sb -2.68662469 39.65900939 167.08893677
Te -2.69110731 42.12850576 168.77690498
Te -0.54715513 40.86851980 171.49843586
Sb -0.55163801 43.33801690 173.18636387
Te 1.59350479 42.08360929 175.08721676
Sb -0.55494240 40.83132751 176.98472615
Te -0.55943488 43.30081595 178.67308830
Te -2.70932590 42.04285554 181.38760724
Sb -2.71339383 44.51258807 183.07665076
Te -0.56876693 43.25790073 184.97746155
Sb -2.71723589 42.00546693 186.87681061
Te -2.72104330 44.47550638 188.55075356
Te -2.33614432 41.74564516 191.72995406
Sb -2.33523513 44.21841929 193.39823038
Te -0.19606914 42.96049701 195.30500116
Sb -2.33451859 41.71384206 197.22327149
Te -2.33370678 44.18642331 198.90618368
Te -2.28648689 46.67950121 201.63485713
Bi -4.48631993 45.39926562 203.28078680
Te -4.58831689 47.80966922 205.44179602
Bi -2.30602829 46.53282092 1.79505278
Te -4.39370366 45.31515250 3.68442204
Te -1.88499216 46.74807867 6.73378214
Bi -4.12739678 45.43777660 8.27992043
Te -4.29430778 47.80955882 10.50586071
Bi -1.99462504 46.64312784 12.41561085
Te -4.04886748 45.45595114 14.37498094
Te -1.93055316 46.36515115 17.42847475
Bi -4.17331136 45.04689815 18.96887794
Te -4.35171141 47.41514757 21.20135561
Bi -2.04470469 46.25530891 23.10347662
Te -4.09515249 45.06853472 25.06468487
Te -2.21279743 46.32432694 28.14139733
Bi -4.46193305 45.01307852 29.67967756
Te -4.64522764 47.37544190 31.91628879
Bi -2.33442575 46.21717343 33.81551450
Te -4.38172270 45.02639707 35.77837479
Te -2.50485538 46.28423156 38.85587181
Bi -4.75097309 44.96930186 40.39540866
Te -4.93114381 47.33309945 42.63008086
Bi -2.62316703 46.17188593 44.53265937
Te -4.67600853 44.98673444 46.49660985
Te -2.56482677 45.89362122 49.55219239
Bi -4.80550645 44.57213670 51.09287905
Te -4.98138260 46.94135640 53.32398812
Bi -2.67668056 45.77884012 55.22907602
Te -4.73198159 44.59730208 57.19186903
Te -2.61712645 45.50245203 60.24670506
Bi -4.86126677 44.18637875 61.78706263
Te -5.03978099 46.55478591 64.01974876
Bi -2.73285820 45.39460029 65.92234094
Te -4.78132929 44.20358608 67.88286158
Te -2.73343389 45.16761254 70.95671642
Bi -4.98209433 43.86141504 72.50010024
Te -5.15788002 46.22913797 74.73148245
Bi -2.85563452 45.06512585 76.63857712
Te -4.90486690 43.86881099 78.60089077
Te -2.47228286 45.25638662 81.63147474
Bi -4.68840608 43.96660332 83.23653345
Te -4.80603947 46.36778096 85.42539992
Bi -2.55875337 45.17201323 87.39030785
Te -4.64597258 43.95516119 89.29349359
Te -0.48281422 46.34411816 91.92674463
Bi -2.58886292 45.11659876 93.78660715
Te -2.54016339 47.61479801 95.81608790
Bi -0.45188567 46.32631301 97.92275921
Te -2.63598811 45.05466984 99.60588374
Te -4.73946059 43.82355553 102.31687628
Sb -4.74761032 46.29092544 104.00605873
Te -2.59983100 45.03808229 105.89993107
Sb -4.75372300 43.78271667 107.78726400
Te -4.76106832 46.25053838 109.47888918
Te -2.61422099 44.99221539 112.20230931
Sb -2.61811257 47.46205702 113.88974846
Te -0.47338794 46.20740261 115.79143611
Sb -2.62122345 44.95547004 117.69022656
Te -2.62530332 47.42520266 119.37770493
Te -4.77549025 46.16703064 122.09562661
Sb -4.77990825 48.63656519 123.78354815
Te -2.63481089 47.38213113 125.68440743
Sb -4.78320550 46.12988149 127.58218514
Te -4.78764268 48.59940506 129.27010740
Te -4.78710909 43.61934672 131.96606900
Sb -4.79158262 46.08884865 133.65403961
Te -2.64644638 44.83443755 135.55480711
Sb -4.79490505 43.58215167 137.45246865
Te -4.79938070 46.05165236 139.14043934
Te -2.65542972 44.79166565 141.86184592
Sb -2.65991171 47.26116290 143.54982354
Te -0.51476935 46.00675532 145.45057752
Sb -2.66323723 44.75446434 147.34822215
Te -2.66771876 47.22396168 149.03619989
Te -4.81737085 45.96609535 151.75449977
Sb -4.82185219 48.43559295 153.44247705
Te -2.67671017 47.18118503 155.34323197
Sb -4.82517740 45.92889421 157.24087713
Te -4.82965873 48.39839182 158.92885524
Te -4.82906383 43.41836829 161.62485325
Sb -4.83354604 45.88786512 163.31283380
Te -2.68840269 44.63345809 165.21358380
Sb -4.83687123 43.38116653 167.11123134
Te -4.84135413 45.85066314 168.79919911
Te -2.69740193 44.59067709 171.52073026
Sb -2.70188486 47.06017410 173.20865827
Te -0.55674204 45.80576662 175.10951099
Sb -2.70518905 44.55348482 177.00702062
Te -2.70968173 47.02297343 178.69538251
Te -4.85957260 45.76501282 181.40990153
Sb -4.86364065 48.23474538 183.09894477
Te -2.71901388 46.98005814 184.99975572
Sb -4.86748270 45.72762431 186.89910495
Te -4.87129010 48.19766382 188.57304773
Te -4.48639108 45.46780227 191.75224857
Sb -4.48548224 47.94057642 193.42052478
Te -2.34631597 46.68265414 195.32729554
Sb -4.48476555 45.43599923 197.24556590
Te -4.48395371 47.90858071 198.92847775
Te -4.43673389 50.40165866 201.65715131
Bi -6.63656695 49.12142305 203.30308100
Te -6.73856388 51.53182670 205.46408998
Bi -4.45627522 50.25497829 1.81734668
Te -6.54395043 49.03730964 3.70671611
Te -4.03523913 50.47023598 6.75607594
Bi -6.27764363 49.15993366 8.30221428
Te -6.44455482 51.53171609 10.52815437
Bi -4.14487229 50.36528542 12.43790456
Te -6.19911478 49.17810862 14.39727471
Te -4.08080024 50.08730825 17.45076863
Bi -6.32355842 48.76905524 18.99117167
Te -6.50195843 51.13730485 21.22364900
Bi -4.19495193 49.97746627 23.12577052
Te -6.24539995 48.79069228 25.08697865
Te -4.36304440 50.04648407 28.16369094
Bi -6.61218003 48.73523568 29.70197131
Te -6.79547485 51.09759929 31.93858229
Bi -4.48467277 49.93933108 33.83780805
Te -6.53196985 48.74855479 35.80066854
Te -4.65510254 50.00638901 38.87816545
Bi -6.90122003 48.69145921 40.41770229
Te -7.08139081 51.05525676 42.65237443
Bi -4.77341422 49.89404337 44.55495323
Te -6.82625577 48.70889204 46.51890386
Te -4.71507360 49.61577839 49.57448609
Bi -6.95575341 48.29429399 51.11517277
Te -7.13162960 50.66351373 53.34628170
Bi -4.82692775 49.50099764 55.25136993
Te -6.88222873 48.31945963 57.21416309
Te -4.76737346 49.22460916 60.26899883
Bi -7.01151353 47.90853579 61.80935643
Te -7.19002774 50.27694319 64.04204246
Bi -4.88310514 49.11675773 65.94463498
Te -6.93157634 47.92574376 67.90515557
Te -4.88368058 48.88976966 70.97901040
Bi -7.13234097 47.58357240 72.52239441
Te -7.30812702 49.95129527 74.75377634
Bi -5.00588137 48.78728328 76.66087112
Te -7.05511397 47.59096839 78.62318491
Te -4.62252979 48.97854407 81.65376881
Bi -6.83865296 47.68876063 83.25882767
Te -6.95628638 50.08993847 85.44769395
Bi -4.70900026 48.89417071 87.41260199
Te -6.79621950 47.67731874 89.31578779
Te -2.63306104 50.06627561 91.94903881
Bi -4.73910968 48.83875613 93.80890141
Te -4.69041039 51.33695533 95.83838203
Bi -2.60213261 50.04847043 97.94505339
Te -4.78623510 48.77682746 99.62817790
Te -6.88970748 47.54571279 102.33917053
Sb -6.89785711 50.01308290 104.02835291
Te -4.75007793 48.76023975 105.92222537
Sb -6.90396987 47.50487397 107.80955835
Te -6.91131533 49.97269593 109.50118324
Te -4.76446784 48.71437270 112.22460352
Sb -4.76835947 51.18421435 113.91204262
Te -2.62363490 49.92955995 115.81373029
Sb -4.77147024 48.67762738 117.71252076
Te -4.77555031 51.14736017 119.39999897
Te -6.92573717 49.88918805 122.11792090
Sb 23.17329895 0.24852179 123.49371963
Te -4.78505771 51.10428842 125.70670165
Sb -6.93345245 49.85203897 127.60447925
Te 23.16556452 0.21136167 128.98027850
Te -6.93735592 47.34150385 131.98836343
Sb -6.94182956 49.81100603 133.67633372
Te -4.79669330 48.55659496 135.57710148
Sb -6.94515188 47.30430899 137.47476305
Te -6.94962773 49.77380988 139.16273359
Te -4.80567652 48.51382300 141.88414018
Sb -4.81015866 50.98332034 143.57211768
Te -2.66501629 49.72891275 145.47287170
Sb -4.81348417 48.47662174 147.37051635
Te -4.81796579 50.94611912 149.05849394
Te -6.96761783 49.68825260 151.77679395
Sb 23.13135476 0.04754953 153.15264829
Te -4.82695707 50.90334253 155.36552615
Sb -6.97542434 49.65105165 157.26317126
Te -6.97990566 52.12054917 158.95114945
Te -6.97931052 47.14052563 161.64714763
Sb -6.98379292 49.61002248 163.33512821
Te -4.83864965 48.35561551 165.23587816
Sb -6.98711811 47.10332378 167.13352556
Te -6.99160120 49.57282055 168.82149343
Te -4.84764872 48.31283429 171.54302465
Sb -4.85213189 50.78233145 173.23095237
Te -2.70698887 49.52792401 175.13180513
Sb -4.85543596 48.27564230 177.02931476
Te -4.85992868 50.74513073 178.71767664
Te -7.00981949 49.48717012 181.43219566
Sb -7.01388770 51.95690273 183.12123877
Te -4.86926077 50.70221556 185.02204968
Sb -7.01772967 49.44978181 186.92139916
Te -7.02153730 51.91982172 188.59534152
Te -6.63663794 49.18995933 191.77454276
Sb -6.63572900 51.66273397 193.44281838
Te -4.49656295 50.40481161 195.34958952
Sb -6.63501253 49.15815656 197.26785996
Te -6.63420061 51.63073817 198.95077154
Te 27.68024866 1.93693883 201.33182856
Bi 25.58345742 0.71434900 203.21442006
Te 25.67218160 3.23581633 205.20985871
Bi 27.75501521 1.84243100 1.75685757
Te 25.54700850 0.55790516 3.37982554
Te 27.97039588 1.93574613 6.40497669
Bi 25.91772135 0.74430283 8.36562967
Te 26.06520961 3.30113219 10.29838704
Bi 28.04510848 1.95201650 12.50345682
Te 25.80368269 0.63637268 14.04826886
Te 27.91498473 1.53975159 17.10302264
Bi 25.86140604 0.35477558 19.06616321
Te 26.01853901 2.91532309 20.99174488
Bi 27.98923793 1.55729439 23.20375290
Te 25.74356159 0.24228788 24.74393454
Te 27.62013507 1.50009205 27.82125864
Bi 25.57281804 0.30929364 29.78407000
Te 25.73336269 2.87318158 31.70562774
Bi 27.70030975 1.51338921 33.91997759
Te 25.45114483 0.20211506 35.45820246
Te 27.33296386 1.45777371 38.53494541
Bi 25.28296082 0.27092502 40.49671615
Te 25.44028917 2.83352561 42.42069433
Bi 27.41144526 1.47913322 44.63151719
Te 25.16793513 0.16103777 46.17093495
Te 27.28387012 1.06599760 49.22566795
Bi -4.87491393 51.99470398 51.50069240
Te 25.38301133 2.44413372 53.11591412
Bi 27.35736175 1.09115375 55.32471320
Te -4.98677383 51.87993663 57.17759741
Te 27.22674577 0.67900584 59.92146550
Bi -4.92895379 51.60206096 62.19667293
Te 25.33182021 2.05197062 63.80993148
Bi 27.30236223 0.69473169 66.02152842
Te -5.04818141 51.49332461 67.87463761
Te 27.10463485 0.35392471 70.63590701
Bi -5.04539579 51.26782819 72.90647355
Te 25.21115484 1.71666610 74.52251980
Bi 27.18991696 0.36452347 76.72897018
Te -5.15982676 51.16900157 78.58517016
Te 27.45112851 0.48849727 81.31830441
Bi -4.73114830 51.38672800 83.53690471
Te 25.47318692 1.80516222 85.20414100
Bi 27.51450612 0.48930021 87.35215269
Te -4.79865103 51.31339728 89.28225394
Te 29.70314557 1.72747194 91.71788523
Bi 27.51285751 0.45237840 93.37837279
Te 27.45439984 2.88802491 95.51741574
Bi 29.65466404 1.66481080 97.52820508
Te 27.54306875 0.43415148 99.37540877
Te -4.75783992 51.25920023 102.34900777
Sb 25.34486077 1.62067648 103.72057949
Te 27.48741158 0.36472969 105.62848238
Sb -4.75907874 51.22572230 107.84800964
Te 25.34277346 1.58670491 109.22007654
Te 27.48385932 0.32507644 111.93937464
Sb 27.47878745 2.79422970 113.62789925
Te 29.62434769 1.54006946 115.52771312
Sb 27.47524895 0.28742039 117.42422137
Te 27.47036688 2.75668365 119.11269458
Te 25.32124723 1.49912375 121.83138144
Sb 25.31670302 3.96858481 123.51941375
Te 27.46188911 2.71420326 125.42006558
Sb 25.31334972 1.46187162 127.31758076
Te 25.30882499 3.93134362 129.00561272
Te -4.79397451 51.06155558 132.01378716
Sb 25.30499062 1.42084792 133.38964832
Te 27.45013795 0.16644317 135.29039129
Sb -4.80179140 51.02434859 137.50014514
Te 25.29717625 1.38364256 138.87600586
Te 27.44113683 0.12366129 141.59741817
Sb 27.43665655 2.59315963 143.28539425
Te 29.58179777 1.33875123 145.18615100
Sb 27.43333194 0.08646098 147.08379882
Te 27.42885118 2.55595904 148.77177517
Te 25.27919757 1.29809171 151.49007386
Sb 25.27471649 3.76758951 153.17805063
Te 27.41985819 2.51318155 155.07880632
Sb 25.27139155 1.26089090 156.97645269
Te 25.26691056 3.73038882 158.66443032
Te -4.83595135 50.86056419 161.67254965
Sb 25.26302294 1.21986204 163.04840419
Te -2.69529105 52.07565416 165.26128006
Sb -4.84375605 50.82336396 167.15893543
Te 25.25521858 1.18266207 168.53477596
Te -2.70427755 52.03287845 171.56844730
Sb 27.39469753 2.39217678 172.94425231
Te 29.53983783 1.13776710 174.84511355
Sb -2.71210203 51.99567090 177.05469068
Te 27.38688064 2.35497164 178.43088490
Te 25.23746417 1.09724577 181.14530832
Sb 25.23257097 3.56648749 182.83518341
Te 27.37822098 2.31237310 184.73500477
Sb 25.22974784 1.06010367 186.63388067
Te 25.22461053 3.52942050 188.30910410
Te 25.62288516 0.80700083 191.49605776
Sb 25.61306478 3.27360521 193.17704575
Te 27.76419442 2.02260816 195.07334452
Sb 25.60571314 0.76469145 196.95105234
Te 25.59618930 3.23126624 198.64089464
Te 25.53000180 5.65909637 201.35412235
Bi 23.43321042 4.43650650 203.23671368
Te 23.52193486 6.95797339 205.23215269
Bi 25.60476841 5.56458845 1.77915179
Te 23.39676144 4.28006264 3.40211952
Te 25.82014883 5.65790380 6.42727059
Bi 23.76747424 4.46646012 8.38792341
Te 23.91496262 7.02328953 10.32068092
Bi 25.89486152 5.67417370 12.52575058
Te 23.65343564 4.35852971 14.07056263
Te 25.76473742 5.26190936 17.12531606
Bi 23.71115872 4.07693314 19.08845679
Te 23.86829193 6.63748037 21.01403866
Bi 25.83899089 5.27945159 23.22604648
Te 23.59331451 3.96444482 24.76622808
Te 25.46988783 5.22224976 27.84355208
Bi 23.42257078 4.03145120 29.80636324
Te 23.58311577 6.59533895 31.72792141
Bi 25.55006273 5.23554645 33.94227124
Te 23.30089781 3.92427212 35.48049585
Te 25.18271665 5.17993156 38.55723883
Bi 23.13271361 3.99308267 40.51900913
Te 23.29004225 6.55568296 42.44298791
Bi 25.26119828 5.20129047 44.65381085
Te 23.01768823 3.88319494 46.19322864
Te 25.13362290 4.78815538 49.24796128
Bi 23.07829296 3.60666064 51.21086299
Te 23.23276451 6.16629115 53.13820777
Bi 25.20711488 4.81331095 55.34700694
Te 22.96643308 3.49189308 56.88776812
Te 25.07649855 4.40116370 59.94375908
Bi 23.02425308 3.21401757 61.90684356
Te 23.18157326 5.77412798 63.83222522
Bi 25.15211515 4.41688898 66.04382220
Te 22.90502539 3.10528109 67.58480858
Te 24.95438779 4.07608216 70.65820061
Bi 22.90781115 2.87978485 72.61664430
Te 23.06090793 5.43882346 74.54481364
Bi 25.03966994 4.08668077 76.75126415
Te 22.79338007 2.78095807 78.29534132
Te 25.30088125 4.21065470 81.34059817
Bi 23.22205855 2.99868460 83.24707586
Te 23.32294008 5.52731955 85.22643512
Bi 25.36425935 4.21145770 87.37444665
Te 23.15455603 2.92535385 88.99242510
Te 27.55289850 5.44962926 91.74017932
Bi 25.36261059 4.17453588 93.40066677
Te 25.30415314 6.61018224 95.53971003
Bi 27.50441723 5.38696815 97.55049937
Te 25.39282180 4.15630894 99.39770298
Te 23.19536719 2.87115677 102.05917898
Sb 23.19461384 5.34283391 103.74287364
Te 25.33716454 4.08688713 105.65077650
Sb 23.19412837 2.83767880 107.55818090
Te 23.19252666 5.30886223 109.24237078
Te 25.33361236 4.04723397 111.96166859
Sb 25.32854054 6.51638704 113.65019357
Te 27.47410084 5.26222669 115.55000726
Sb 25.32500187 4.00957786 117.44651556
Te 25.32012001 6.47884104 119.13498891
Te 23.17100024 5.22128125 121.85367557
Sb 23.16645618 7.69074217 123.54170799
Te 25.31164210 6.43636058 125.44235976
Sb 23.16310285 5.18402897 127.33987502
Te 23.15857808 7.65350103 129.02790700
Te 23.15923254 2.67351204 131.72395844
Sb 23.15474374 5.14300530 133.41194236
Te 25.29989095 3.88860073 135.31268534
Sb 23.15141560 2.63630517 137.21031641
Te 23.14692931 5.10579988 138.89830000
Te 25.29088989 3.84581872 141.61971228
Sb 25.28640961 6.31531707 143.30768834
Te 27.43155082 5.06090870 145.20844510
Sb 25.28308482 3.80861821 147.10609287
Te 25.27860425 6.27811637 148.79406939
Te 23.12895046 5.02024899 151.51236810
Sb 23.12446949 7.48974679 153.20034476
Te 25.26961123 6.23533893 155.10110057
Sb 23.12114465 4.98304826 156.99874700
Te 23.11666370 7.45254610 158.68672458
Te 23.11725559 2.47252078 161.38272086
Sb 23.11277589 4.94201935 163.07069836
Te 25.25791610 3.68761078 164.97145141
Sb 23.10945077 2.43532050 166.86910666
Te 23.10497159 4.90481950 168.55707007
Te 25.24892949 3.64483509 171.27861863
Sb 25.24445048 6.11433431 172.96654652
Te 27.38959077 4.85992458 174.86740767
Sb 25.24110503 3.60762742 176.76486180
Te 25.23663377 6.07712886 178.45317907
Te 23.08721709 4.81940345 181.16760214
Sb 23.08232395 7.28864497 182.85747745
Te 25.22797397 6.03453053 184.75729877
Sb 23.07950086 4.78226105 186.65617452
Te 23.07436366 7.25157764 188.33139817
Te 23.47263780 4.52915833 191.51835166
Sb 23.46281797 6.99576277 193.19933954
Te 25.61394765 5.74476580 195.09563838
Sb 23.45546617 4.48684897 196.97334618
Te 23.44594220 6.95342346 198.66318863
Te 23.37975477 9.38125384 201.37641659
Bi 21.28296349 8.15866390 203.25900808
Te 21.37168803 10.68013077 205.25444701
Bi 23.45452152 9.28674560 1.80144593
Te 21.24651479 8.00221987 3.42441354
Te 23.66990204 9.38006127 6.44956475
Bi 21.61722729 8.18861767 8.41021737
Te 21.76471607 10.74544681 10.34297523
Bi 23.74461479 9.39633059 12.54804488
Te 21.50318871 8.08068684 14.09285651
Te 23.61449027 8.98406716 17.14761027
Bi 21.56091186 7.79909049 19.11075094
Te 21.71804512 10.35963758 21.03633289
Bi 23.68874428 9.00160859 23.24834054
Te 21.44306769 7.68660221 24.78852201
Te 23.31964089 8.94440751 27.86584613
Bi 21.27232385 7.75360867 29.82865709
Te 21.43286902 10.31749626 31.75021558
Bi 23.39981586 8.95770343 33.96456515
Te 21.15065110 7.64642913 35.50278982
Te 23.03246959 8.90208911 38.57953286
Bi 20.98246662 7.71524005 40.54130297
Te 21.13979530 10.27784026 42.46528206
Bi 23.11095134 8.92344759 44.67610489
Te 20.86744142 7.60535230 46.21552253
Te 22.98337571 8.51031309 49.27025514
Bi 20.92804588 7.32881810 51.23315683
Te 21.08251755 9.88844837 53.16050178
Bi 23.05686795 8.53546822 55.36930079
Te 20.81618610 7.21405036 56.91006181
Te 22.92625142 8.12332120 59.96605313
Bi 20.87400598 6.93617498 61.92913770
Te 21.03132638 9.49628545 63.85451922
Bi 23.00186825 8.13904637 66.06611629
Te 20.75477847 6.82743826 67.60710240
Te 22.80414063 7.79823945 70.68049443
Bi 20.75756401 6.60194202 72.63893828
Te 20.91066109 9.16098058 74.56710762
Bi 22.88942301 7.80883802 76.77355810
Te 20.64313322 6.50311549 78.31763525
Te 23.15063443 7.93281220 81.36289254
Bi 21.07181167 6.72084194 83.26937004
Te 21.17269325 9.24947686 85.24872933
Bi 23.21401246 7.93361495 87.39674086
Te 21.00430921 6.64751115 89.01471924
Te 25.40265164 9.17178668 91.76247369
Bi 23.21236388 7.89669325 93.42296108
Te 23.15390626 10.33233943 95.56200432
Bi 25.35417035 9.10912529 97.57279361
Te 23.24257500 7.87846620 99.41999726
Te 21.04512024 6.59331428 102.08147331
Sb 21.04436681 9.06499125 103.76516817
Te 23.18691764 7.80904440 105.67307081
Sb 21.04388159 6.55983634 107.58047532
Te 21.04227992 9.03101964 109.26466518
Te 23.18336548 7.76939139 111.98396293
Sb 23.17829382 10.23854437 113.67248798
Te 25.32385397 8.98438396 115.57230170
Sb 23.17475501 7.73173526 117.46880981
Te 23.16987327 10.20099824 119.15728332
Te 21.02075338 8.94343864 121.87596985
Sb 21.01620935 11.41289946 123.56400245
Te 23.16139541 10.15851790 125.46465413
Sb 21.01285601 8.90618637 127.36216923
Te 21.00833139 11.37565800 129.05020152
Te 21.00898554 6.39566937 131.74625257
Sb 21.00449685 8.86516265 133.43423656
Te 23.14964399 7.61075812 135.33497975
Sb 21.00116867 6.35846254 137.23261052
Te 20.99668262 8.82795725 138.92059434
Te 23.14064295 7.56797620 141.64200643
Sb 23.13616275 10.03747440 143.32998297
Te 25.28130392 8.78306607 145.23073950
Sb 23.13283807 7.53077551 147.12838730
Te 23.12835749 10.00027354 148.81636400
Te 20.97870359 8.74240629 151.53466242
Sb 20.97422275 11.21190411 153.22263915
Te 23.11936434 9.95749608 155.12339484
Sb 20.97089770 8.70520559 157.02104137
Te 20.96641710 11.17470338 158.70901898
Te 20.96700875 6.19467837 161.40501495
Sb 20.96252908 8.66417663 163.09299266
Te 23.10766933 7.40976808 164.99374571
Sb 20.95920382 6.15747795 166.89140070
Te 20.95472483 8.62697677 168.57936436
Te 23.09868265 7.36699255 171.30091277
Sb 23.09420367 9.83649165 172.98884068
Te 25.23934386 8.58208186 174.88970203
Sb 23.09085813 7.32978479 176.78715620
Te 23.08638703 9.79928621 178.47547346
Te 20.93697029 8.54156083 181.18989633
Sb 20.93207720 11.01080209 182.87977178
Te 23.07772723 9.75668771 184.77959288
Sb 20.92925411 8.50441832 186.67846868
Te 20.92411697 10.97373494 188.35369258
Te 21.32239111 8.25131591 191.54064545
Sb 21.31257115 10.71792025 193.22163376
Te 23.46370073 9.46692311 195.11793266
Sb 21.30521922 8.20900633 196.99564029
Te 21.29569539 10.67558087 198.68548291
Te 21.22950816 13.10341123 201.39871089
Bi 19.13271675 11.88082118 203.28130210
Te 19.22144125 14.40228799 205.27674133
Bi 21.30427489 13.00890279 1.82374018
Te 19.09626834 11.72437703 3.44670791
Te 21.51965524 13.10221887 6.47185931
Bi 19.46698058 11.91077503 8.43251184
Te 19.61446939 14.46760390 10.36526991
Bi 21.59436817 13.11848769 12.57033942
Te 19.35294228 11.80284367 14.11515091
Te 21.46424349 12.70622447 17.16990486
Bi 19.41066518 11.52124797 19.13304531
Te 19.56779856 14.08179475 21.05862747
Bi 21.53849759 12.72376574 23.27063519
Te 19.29282111 11.40875893 24.81081638
Te 21.16939413 12.66656500 27.88814051
Bi 19.12207703 11.47576600 29.85095144
Te 19.28262237 14.03965333 31.77251015
Bi 21.24956935 12.67986039 33.98685978
Te 19.00040443 11.36858594 35.52508417
Te 20.88222271 12.62424660 38.60182698
Bi 18.83221972 11.43739744 40.56359707
Te 18.98954870 13.99999727 42.48757666
Bi 20.96070452 12.64560476 44.69839919
Te 18.71719464 11.32750918 46.23781679
Te 20.83312894 12.23247061 49.29254937
Bi 18.77779911 11.05097559 51.25545094
Te 18.93227099 13.61060569 53.18279623
Bi 20.90662141 12.25762518 55.39159503
Te 18.66593941 10.93620707 56.93235603
Te 20.77600432 11.84547869 59.98834736
Bi 18.72375910 10.65833231 61.95143180
Te 18.88107976 13.21844248 63.87681366
Bi 20.85162139 11.86120345 66.08841072
Te 18.60453145 10.54959512 67.62939656
Te 20.65389352 11.52039675 70.70278880
Bi 18.60731690 10.32409934 72.66123246
Te 18.76041436 12.88313776 74.58940205
Bi 20.73917604 11.53099507 76.79585260
Te 18.49288617 10.22527246 78.33992943
Te 21.00038748 11.65496950 81.38518689
Bi 18.92156472 10.44299931 83.29166443
Te 19.02244658 12.97163405 85.27102398
Bi 21.06376558 11.65577203 87.41903530
Te 18.85406222 10.36966837 89.03701363
Te 23.25240493 12.89394408 91.78476814
Bi 21.06211686 11.61885034 93.44525550
Te 21.00365960 14.05449669 95.58429895
Bi 23.20392369 12.83128238 97.59508824
Te 21.09232826 11.60062334 99.44229192
Te 18.89487332 10.31547155 102.10376768
Sb 18.89412023 12.78714849 103.78746252
Te 21.03667090 11.53120172 105.69536534
Sb 18.89363475 10.28199343 107.60276963
Te 18.89203307 12.75317666 109.28695969
Te 21.03311872 11.49154871 112.00625748
Sb 21.02804705 13.96070151 113.69478257
Te 23.17360731 12.70654123 115.59459627
Sb 21.02450836 11.45389241 117.49110456
Te 21.01962668 13.92315531 119.17957798
Te 18.87050666 12.66559587 121.89826433
Sb 18.86596252 15.13505668 123.58629689
Te 21.01114863 13.88067514 125.48694869
Sb 18.86260942 12.62834350 127.38446390
Te 18.85808471 15.09781525 129.07249624
Te 18.85873861 10.11782667 131.76854672
Sb 18.85425024 12.58731991 133.45653103
Te 20.99939725 11.33291528 135.35727403
Sb 18.85092193 10.08061984 137.25490502
Te 18.84643597 12.55011450 138.94288883
Te 20.99039627 11.29013347 141.66430099
Sb 20.98591612 13.75963155 143.35227759
Te 23.13105720 12.50522329 145.25303412
Sb 20.98259134 11.25293284 147.15068183
Te 20.97811083 13.72243073 148.83865857
Te 18.82845684 12.46456356 151.55695683
Sb 18.82397621 14.93406116 153.24493376
Te 20.96911769 13.67965333 155.14568942
Sb 18.82065084 12.42736277 157.04333561
Te 18.81617034 14.89686058 158.73131363
Te 18.81676200 9.91683568 161.42730921
Sb 18.81228229 12.38633392 163.11528703
Te 20.95742252 11.13192537 165.01603997
Sb 18.80895707 9.87963525 166.91369494
Te 18.80447805 12.34913386 168.60165888
Te 20.94843559 11.08914993 171.32320707
Sb 20.94395686 13.55864891 173.01113500
Te 23.08909701 12.30423924 174.91199633
Sb 20.94061137 11.05194202 176.80945055
Te 20.93614026 13.52144337 178.49776802
Te 18.78672350 12.26371814 181.21219061
Sb 18.78183059 14.73295939 182.90206627
Te 20.92748064 13.47884484 184.80188736
Sb 18.77900753 12.22657538 186.70076309
Te 18.77387049 14.69589199 188.37598708
Te 19.17214424 11.97347335 191.56293982
Sb 19.16232447 14.44007771 193.24392816
Te 21.31345400 13.18908046 195.14022700
Sb 19.15497233 11.93116363 197.01793449
Te 19.14544870 14.39773801 198.70777735
Te 19.07926154 16.82556838 201.42100556
Bi 16.98246990 15.60297832 203.30359655
Te 17.07119471 18.12444511 205.29903598
Bi 19.15402821 16.73105992 1.84603480
Te 16.94602165 15.44653430 3.46900260
Te 19.36940881 16.82437627 6.49415409
Bi 17.31673422 15.63293235 8.45480664
Te 17.46422301 18.18976127 10.38756472
Bi 19.44412179 16.84064469 12.59263419
Te 17.20269583 15.52500074 14.13744567
Te 19.31399689 16.42838201 17.19219964
Bi 17.26041844 15.24340519 19.15533988
Te 17.41755190 17.80395194 21.08092240
Bi 19.38825117 16.44592291 23.29292991
Te 17.14257474 15.13091616 24.83311116
Te 19.01914745 16.38872249 27.91043540
Bi 16.97183034 15.19792339 29.87324610
Te 17.13237573 17.76181054 31.79480510
Bi 19.09932288 16.40201739 34.00915446
Te 16.85015792 15.09074284 35.54737886
Te 18.73197601 16.34640399 38.62412174
Bi 16.68197311 15.15955468 40.58589178
Te 16.83930222 17.72215447 42.50987145
Bi 18.81045804 16.36776160 44.72069390
Te 16.56694784 15.04966589 46.26011126
Te 18.68288239 15.95462795 49.31484382
Bi 16.62755237 14.77313284 51.27774539
Te 16.78202464 17.33276262 53.20509092
Bi 18.75637484 15.97978220 55.41388995
Te 16.51569264 14.65836404 56.95465047
Te 18.62575752 15.56763582 60.01064201
Bi 16.57351229 14.38048966 61.97372663
Te 16.73083296 16.94059981 63.89910856
Bi 18.70137454 15.58336029 66.11070530
Te 16.45428466 14.27175190 67.65169118
Te 18.50364663 15.24255417 70.72508326
Bi 16.45707001 14.04625671 72.68352720
Te 16.61016748 16.60529508 74.61169685
Bi 18.58892926 15.25315221 76.81814710
Te 16.34263941 13.94742923 78.36222408
Te 18.85014075 15.37712686 81.40748141
Bi 16.77131802 14.16515647 83.31395900
Te 16.87219974 16.69379119 85.29331852
Bi 18.91351899 15.37792910 87.44132980
Te 16.70381571 14.09182544 89.05930814
Te 21.10215819 16.61610108 91.80706277
Bi 18.91187046 15.34100746 93.46755009
Te 18.85341296 17.77665364 95.60659350
Bi 21.05367707 16.55343964 97.61738282
Te 18.94208171 15.32278047 99.46458658
Te 16.74462658 14.03762882 102.12606226
Sb 16.74387347 16.50930556 103.80975725
Te 18.88642430 15.25335884 105.71765980
Sb 16.74338805 14.00415083 107.62506419
Te 16.74178655 16.47533377 109.30925432
Te 18.88287204 15.21370586 112.02855210
Sb 18.87780038 17.68285862 113.71707721
Te 21.02336063 16.42869845 115.61689094
Sb 18.87426161 15.17604954 117.51339906
Te 18.86938001 17.64531250 119.20187265
Te 16.72025978 16.38775295 121.92055911
Sb 16.71571600 18.85721382 123.60859170
Te 18.86090195 17.60283216 125.50924341
Sb 16.71236272 16.35050065 127.40675856
Te 16.70783818 18.81997223 129.09479100
Te 16.70849201 13.83998383 131.79084129
Sb 16.70400359 16.30947711 133.47882550
Te 18.84915062 15.05507249 135.37956845
Sb 16.70067527 13.80277697 137.27719952
Te 16.69618940 16.27227154 138.96518339
Te 18.84014970 15.01229069 141.68659557
Sb 18.83566964 17.48178869 143.37457224
Te 20.98081070 16.22738043 145.27532879
Sb 18.83234468 14.97509001 147.17297639
Te 18.82786430 17.44458781 148.86095329
Te 16.67821032 16.18672076 151.57925124
Sb 16.67372955 18.65621835 153.26722830
Te 18.81887094 17.40181035 155.16798393
Sb 16.67040424 16.14951996 157.06563040
Te 16.66592381 18.61901771 158.75360824
Te 16.66651535 13.63899294 161.44960368
Sb 16.66203574 16.10849117 163.13758159
Te 18.80717584 14.85408242 165.03833452
Sb 16.65871044 13.60179252 166.93598959
Te 16.65423156 16.07129125 168.62395351
Te 18.79818905 14.81130731 171.34550157
Sb 18.79371012 17.28080615 173.03342963
Te 20.93885038 16.02639625 174.93429095
Sb 18.79036481 14.77409905 176.83174518
Te 18.78589376 17.24360050 178.52006272
Te 16.63647689 15.98587549 181.23448518
Sb 16.63158402 18.45511650 182.92436098
Te 18.77723400 17.20100198 184.82418209
Sb 16.62876071 15.94873240 186.72305776
Te 16.62362393 18.41804896 188.39828177
Te 17.02189738 15.69563066 191.58523441
Sb 17.01207771 18.16223493 193.26622277
Te 19.16320725 16.91123773 195.16252159
Sb 17.00472556 15.65332092 197.04022910
Te 16.99520213 18.11989521 198.73007199
Te 16.92901512 20.54772556 201.44330020
Bi 14.83222349 19.32513569 203.32589125
Te 14.92094817 21.84660202 205.32133105
Bi 17.00378175 20.45321700 1.86832954
Te 14.79577503 19.16869104 3.49129735
Te 17.21916236 20.54653339 6.51644889
Bi 15.16648783 19.35508946 8.47710155
Te 15.31397656 21.91191821 10.40985979
Bi 17.29387543 20.56280178 12.61492919
Te 15.05244949 19.24715766 14.15974077
Te 17.16375050 20.15053922 17.21449464
Bi 15.11017199 18.96556246 19.17763483
Te 15.26730560 21.52610912 21.10321751
Bi 17.23800469 20.16807990 23.31522491
Te 14.99232828 18.85307297 24.85540597
Te 16.86890096 20.11087984 27.93273039
Bi 14.82158381 18.92008053 29.89554098
Te 14.98212946 21.48396747 31.81710025
Bi 16.94907643 20.12417446 34.03144969
Te 14.69991155 18.81289990 35.56967394
Te 16.58172935 20.06856145 38.64641674
Bi 14.53172639 18.88171195 40.60818689
Te 14.68905578 21.44431169 42.53216665
Bi 16.66021156 20.08991861 44.74298890
Te 14.41670135 18.77182277 46.28240618
Te 16.53263574 19.67678523 49.33713894
Bi 14.47730591 18.49528993 51.30004039
Te 14.63177827 21.05491953 53.22738607
Bi 16.60612836 19.70193906 55.43618508
Te 14.36544613 18.38052081 56.97694548
Te 16.47551075 19.28979319 60.03293690
Bi 14.42326547 18.10264673 61.99602137
Te 14.58058653 20.66275674 63.92140347
Bi 16.55112809 19.30551741 66.13300048
Te 14.30403812 17.99390868 67.67398597
Te 16.35339985 18.96471151 70.74737810
Bi 14.30682324 17.76841388 72.70582190
Te 14.45992087 20.32745214 74.63399163
Bi 16.43868261 18.97530910 76.84044197
Te 14.19239273 17.66958617 78.38451866
Te 16.69989423 19.09928387 81.42977614
Bi 14.62107131 17.88731373 83.33625360
Te 14.72195323 20.41594843 85.31561325
Bi 16.76327245 19.10008639 87.46362460
Te 14.55356911 17.81398246 89.08160291
Te 18.95191173 20.33825817 91.82935744
Bi 16.76162366 19.06316447 93.48984467
Te 16.70316619 21.49881060 95.62888818
Bi 18.90343034 20.27559655 97.63967757
Te 16.79183495 19.04493743 99.48688127
Te 14.59437991 17.75978598 102.14835685
Sb 14.59362694 20.23146275 103.83205198
Te 16.73617759 18.97551592 105.73995452
Sb 14.59314143 17.72630781 107.64735888
Te 14.59153989 20.19749075 109.33154899
Te 16.73262529 18.93586286 112.05084675
Sb 16.72755374 21.40501573 113.73937207
Te 18.87311407 20.15085540 115.63918570
Sb 16.72401502 18.89820670 117.53569381
Te 16.71913342 21.36746952 119.22416744
Te 14.57001326 20.10991005 121.94285375
Sb 14.56546937 22.57937084 123.63088639
Te 16.71065544 21.32498925 125.53153816
Sb 14.56211606 20.07265774 127.42905323
Te 14.55759163 22.54212931 129.11708558
Te 14.55824533 17.56214099 131.81313571
Sb 14.55375706 20.03163422 133.50112010
Te 16.69890409 18.77722959 135.40186304
Sb 14.55042875 17.52493402 137.29949410
Te 14.54594282 19.99442850 138.98747805
Te 16.68990300 18.73444785 141.70889023
Sb 16.68542294 21.20394570 143.39686699
Te 18.83056419 19.94953748 145.29762339
Sb 16.68209823 18.69724714 147.19527100
Te 16.67761775 21.16674493 148.88324801
Te 14.52796365 19.90887787 151.60154595
Sb 14.52348289 22.37837538 153.28952308
Te 16.66862436 21.12396752 155.19027874
Sb 14.52015760 19.87167711 157.08792507
Te 14.51567721 22.34117481 158.77590305
Te 14.51626867 17.36115008 161.47189831
Sb 14.51178921 19.83064835 163.15987631
Te 16.65692923 18.57623955 165.06062917
Sb 14.50846375 17.32394966 166.95828414
Te 14.50398488 19.79344824 168.64624805
Te 16.64794227 18.53346444 171.36779626
Sb 16.64346352 21.00296308 173.05572435
Te 18.78860384 19.74855336 174.95658553
Sb 16.64011815 18.49625625 176.85403989
Te 16.63564709 20.96575764 178.54235731
Te 14.48623040 19.70803249 181.25677979
Sb 14.48133742 22.17727343 182.94665573
Te 16.62698752 20.92315906 184.84647681
Sb 14.47851419 19.67088947 186.74535233
Te 14.47337731 22.14020583 188.42057657
Te 14.87165090 19.41778802 191.60752898
Sb 14.86183116 21.88439207 193.28851749
Te 17.01296061 20.63339495 195.18481635
Sb 14.85447907 19.37547805 197.06252377
Te 14.84495561 21.84205226 198.75236700
Te 14.77876832 24.26988266 201.46559517
Bi 12.68197694 23.04729276 203.34818648
Te 12.77070174 25.56875933 205.34362594
Bi 14.85353516 24.17537406 1.89062433
Te 12.64552848 22.89084815 3.51359220
Te 15.06891588 24.26869036 6.53874398
Bi 13.01624134 23.07724653 8.49939666
Te 13.16373036 25.63407549 10.43215474
Bi 15.14362908 24.28495890 12.63722420
Te 12.90220315 22.96931482 14.18203578
Te 15.01350410 23.87269645 17.23678974
Bi 12.95992554 22.68771972 19.19992997
Te 13.11705908 25.24826626 21.12551274
Bi 15.08775817 23.89023707 23.33752015
Te 12.84208179 22.57523010 24.87770116
Te 14.71865453 23.83303707 27.95502568
Bi 12.67133736 22.64223773 29.91783638
Te 12.83188301 25.20612475 31.83939549
Bi 14.79882997 23.84633137 34.05374489
Te 12.54966501 22.53505691 35.59196915
Te 14.43148292 23.79071854 38.66871191
Bi 12.38148001 22.60386917 40.63048195
Te 12.53880942 25.16646867 42.55446190
Bi 14.50996527 23.81207562 44.76528414
Te 12.26645499 22.49397969 46.30470141
Te 14.38238906 23.39894228 49.35943410
Bi 12.32705935 22.21744694 51.32233574
Te 12.48153153 24.77707669 53.24968142
Bi 14.45588181 23.42409599 55.45848028
Te 12.21519962 22.10267769 56.99924067
Te 14.32526430 23.01195028 60.05523194
Bi 12.27301904 21.82480384 62.01831656
Te 12.43033999 24.38491398 63.94369863
Bi 14.40088147 23.02767426 66.15529528
Te 12.15379156 21.71606565 67.69628095
Te 14.20315321 22.68686874 70.76967306
Bi 12.15657674 21.49057094 72.72811671
Te 12.30967426 24.04960908 74.65628641
Bi 14.28843619 22.69746621 76.86273676
Te 12.04214627 21.39174329 78.40681352
Te 14.54964774 22.82144097 81.45207104
Bi 12.47082482 21.60947084 83.35854848
Te 12.57170663 24.13810549 85.33790822
Bi 14.61302584 22.82224335 87.48591936
Te 12.40332242 21.53613948 89.10389775
Te 16.80166501 24.06041495 91.85165226
Bi 14.61137710 22.78532147 93.51213959
Te 14.55291968 25.22096775 95.65118283
Bi 16.75318382 23.99775356 97.66197213
Te 14.64158860 22.76709456 99.50917595
Te 12.44413341 21.48194309 102.17065147
Sb 12.44338044 23.95361974 103.85434667
Te 14.58593105 22.69767298 105.76224935
Sb 12.44289487 21.44846494 107.66965358
Te 12.44129355 23.91964792 109.35384368
Te 14.58237888 22.65802001 112.07314156
Sb 14.57730732 25.12717263 113.76166683
Te 16.72286748 23.87301253 115.66148041
Sb 14.57376854 22.62036370 117.55798847
Te 14.56888690 25.08962656 119.24646220
Te 12.41976664 23.83206702 121.96514862
Sb 12.41522289 26.30152782 123.65318105
Te 14.56040894 25.04714631 125.55383292
Sb 12.41186961 23.79481472 127.45134794
Te 12.40734510 26.26428628 129.13938046
Te 12.40799876 21.28429807 131.83543039
Sb 12.40351045 23.75379110 133.52341480
Te 14.54865745 22.49938653 135.42415777
Sb 12.40018218 21.24709117 137.32178879
Te 12.39569622 23.71658543 139.00977270
Te 14.53965650 22.45660493 141.73118500
Sb 14.53517650 24.92610272 143.41916169
Te 16.68031758 23.67169443 145.31991815
Sb 14.53185157 22.41940418 147.21756583
Te 14.52737119 24.88890194 148.90554275
Te 12.37771695 23.63103505 151.62384056
Sb 12.37323635 26.10053261 153.31181769
Te 14.51837779 24.84612467 155.21257328
Sb 12.36991107 23.59383412 157.11021974
Te 12.36543066 26.06333172 158.79819768
Te 12.36602212 21.08330714 161.49419298
Sb 12.36154250 23.55280543 163.18217108
Te 14.50668277 22.29839656 165.08292385
Sb 12.35821718 21.04610674 166.98057879
Te 12.35373822 23.51560528 168.66854286
Te 14.49769577 22.25562156 171.39009097
Sb 14.49321703 24.72512031 173.07801916
Te 16.63835735 23.47071041 174.97888022
Sb 14.48987166 22.21841329 176.87633453
Te 14.48540051 24.68791468 178.56465226
Te 12.33598382 23.43018960 181.27907461
Sb 12.33109091 25.89943051 182.96895065
Te 14.47674093 24.64531599 184.86877169
Sb 12.32826770 23.39304630 186.76764722
Te 12.32313080 25.86236269 188.44287141
Te 12.72140429 23.13994522 191.62982389
Sb 12.71158463 25.60654920 193.31081239
Te 14.86271424 24.35555189 195.20711107
Sb 12.70423251 23.09763509 197.08481864
Te 12.69470906 25.56420941 198.77466177
Te 12.62852204 27.99203978 201.48789007
Bi 10.53173060 26.76944970 203.37048108
Te 10.62045521 29.29091599 205.36592094
Bi 12.70328884 27.89753094 1.91291976
Te 10.49528193 26.61300500 3.53588736
Te 12.91866954 27.99084750 6.56103889
Bi 10.86599493 26.79940372 8.52169165
Te 11.01348368 29.35623238 10.45444992
Bi 12.99338256 28.00711601 12.65951939
Te 10.75195670 26.69147152 14.20433086
Te 12.86325765 27.59485346 17.25908500
Bi 10.80967920 26.40987676 19.22222522
Te 10.96681275 28.97042330 21.14780795
Bi 12.93751190 27.61239413 23.35981542
Te 10.69183543 26.29738724 24.89999648
Te 12.56840808 27.55519402 27.97732081
Bi 10.52109091 26.36439489 29.94013152
Te 10.68163652 28.92828185 31.86169078
Bi 12.64858361 27.56848852 34.07604006
Te 10.39941860 26.25721396 35.61426440
Te 12.28123649 27.51287564 38.69100715
Bi 10.23123363 26.32602626 40.65277748
Te 10.38856284 28.88862578 42.57675717
Bi 12.35971888 27.53423259 44.78757942
Te 10.11620864 26.21613677 46.32699672
Te 12.23214268 27.12109942 49.38172941
Bi 10.17681289 25.93960407 51.34463082
Te 10.33128512 28.49923369 53.27197665
Bi 12.30563535 27.14625302 55.48077558
Te 10.06495312 25.82483455 57.02153584
Te 12.17501784 26.73410742 60.07752708
Bi 10.12277246 25.54696072 62.04061147
Te 10.28009352 28.10707072 63.96599368
Bi 12.25063517 26.74983137 66.17759075
Te 10.00354520 25.43822244 67.71857613
Te 12.05290668 26.40902592 70.79196798
Bi 10.00633029 25.21272807 72.75041162
Te 10.15942785 27.77176614 74.67858157
Bi 12.13818974 26.41962333 76.88503156
Te 9.89189993 25.11390033 78.42910843
Te 12.39940104 26.54359793 81.47436576
Bi 10.32057832 25.33162792 83.38084336
Te 10.42146016 27.86026242 85.36020305
Bi 12.46277932 26.54440047 87.50821431
Te 10.25307585 25.25829654 89.12619248
Te 14.65141844 27.78257199 91.87394691
Bi 12.46113066 26.50747848 93.53443424
Te 12.40267316 28.94312466 95.67347760
Bi 14.60293734 27.71991047 97.68426686
Te 12.49134182 26.48925149 99.53147070
Te 10.29388688 25.20410008 102.19294617
Sb 10.29313390 27.67577674 103.87664132
Te 12.43568447 26.41982999 105.78454393
Sb 10.29264829 25.17062191 107.69194825
Te 10.29104682 27.64180485 109.37613848
Te 12.43213240 26.38017686 112.09543630
Sb 12.42706068 28.84932965 113.78396161
Te 14.57262088 27.59516957 115.68377514
Sb 12.42352186 26.34252071 117.58028318
Te 12.41864027 28.81178361 119.26875696
Te 10.26952016 27.55422411 121.98744313
Sb 10.26497632 30.02368495 123.67547596
Te 12.41016238 28.76930325 125.57612760
Sb 10.26162304 27.51697183 127.47364267
Te 10.25709849 29.98644340 129.16167519
Te 10.25775223 25.00645513 131.85772501
Sb 10.25326388 27.47594823 133.54570943
Te 12.39841102 26.22154345 135.44645249
Sb 10.24993561 24.96924817 137.34408354
Te 10.24544970 27.43874240 139.03206740
Te 12.38940996 26.17876187 141.75347970
Sb 12.38492987 28.64825969 143.44145642
Te 14.53007104 27.39385142 145.34221285
Sb 12.38160504 26.14156117 147.23986056
Te 12.37712455 28.61105898 148.92783742
Te 10.22747044 27.35319208 151.64613537
Sb 10.22298985 29.82268963 153.33411253
Te 12.36813121 28.56828159 155.23486818
Sb 10.21966438 27.31599123 157.13251441
Te 10.21518411 29.78548876 158.82049250
Te 10.21577550 24.80546432 161.51648763
Sb 10.21129595 27.27496241 163.20446583
Te 12.35643613 26.02055363 165.10521868
Sb 10.20797069 24.76826375 167.00287355
Te 10.20349188 27.23776223 168.69083745
Te 12.34744920 25.97777860 171.41238573
Sb 12.34297052 28.44727716 173.10031393
Te 14.48811075 27.19286742 175.00117524
Sb 12.33962494 25.94057037 176.89862964
Te 12.33515394 28.41007175 178.58694701
Te 10.18573721 27.15234675 181.30136935
Sb 10.18084425 29.62158753 182.99124551
Te 12.32649425 28.36747303 184.89106657
Sb 10.17802113 27.11520331 186.78994217
Te 10.17288422 29.58451968 188.46516628
Te 10.57115775 26.86210212 191.65211878
Sb 10.56133806 29.32870600 193.33310737
Te 12.71246768 28.07770898 195.22940607
Sb 10.55398605 26.81979213 197.10711355
Te 10.54446267 29.28636630 198.79695674
Te 10.47827544 31.71419656 201.51018520
Bi 8.38148397 30.49160671 203.39277647
Te 8.47020865 33.01307355 205.38821597
Bi 10.55304224 31.61968792 1.93521451
Te 8.34503549 30.33516211 3.55818240
Te 10.76842319 31.71300453 6.58333424
Bi 8.71574848 30.52156080 8.54398680
Te 8.86323737 33.07838952 10.47674494
Bi 10.84313602 31.72927298 12.68181443
Te 8.60171012 30.41362897 14.22662596
Te 10.71301129 31.31701038 17.28137995
Bi 8.65943288 30.13203390 19.24452045
Te 8.81656632 32.69258044 21.17010316
Bi 10.78726539 31.33455126 23.38211057
Te 8.54158898 30.01954435 24.92229168
Te 10.41816162 31.27735107 27.99961602
Bi 8.37084444 30.08655191 29.96242679
Te 8.53139015 32.65043871 31.88398607
Bi 10.49833708 31.29064573 34.09833553
Te 8.24917217 29.97937115 35.63655973
Te 10.13099019 31.23503259 38.71330251
Bi 8.08098725 30.04818337 40.67507261
Te 8.23831659 32.61078282 42.59905243
Bi 10.20947241 31.25638975 44.80987466
Te 7.96596218 29.93829383 46.34929194
Te 10.08189606 30.84325633 49.40402470
Bi 8.02656623 29.66176111 51.36692615
Te 8.18103846 32.22139068 53.29427188
Bi 10.15538875 30.86841009 55.50307086
Te 7.91470671 29.54699161 57.04383113
Te 10.02477132 30.45626420 60.09982229
Bi 7.97252606 29.26911786 62.06290680
Te 8.12984702 31.82922783 63.98828887
Bi 10.10038862 30.47198833 66.19988566
Te 7.85329866 29.16037967 67.74087124
Te 9.90266049 30.13118302 70.81426301
Bi 7.85608384 28.93488521 72.77270661
Te 8.00918142 31.49392324 74.70087659
Bi 9.98794326 30.14178044 76.90732666
Te 7.74165342 28.83605737 78.45140346
Te 10.24915451 30.26575488 81.49666070
Bi 8.17033177 29.05378480 83.40313814
Te 8.27121361 31.58241944 85.38249786
Bi 10.31253276 30.26655744 87.53050919
Te 8.10282938 28.98045350 89.14848744
Te 12.50117186 31.50472894 91.89624169
Bi 10.31088399 30.22963546 93.55672922
Te 10.25242656 32.66528189 95.69577238
Bi 12.45269079 31.44206759 97.70656163
Te 10.34109530 30.21140849 99.55376535
Te 8.14364033 28.92625710 102.21524091
Sb 8.14288738 31.39793381 103.89893602
Te 10.28543795 30.14198695 105.80683866
Sb 8.14240181 28.89277890 107.71424298
Te 8.14080033 31.36396185 109.39843313
Te 10.28188578 30.10233391 112.11773097
Sb 10.27681419 32.57148675 113.80625619
Te 12.42237439 31.31732664 115.70606980
Sb 10.27327542 30.06467778 117.60257786
Te 10.26839375 32.53394069 119.29105151
Te 8.11927358 31.27638124 122.00973793
Sb 8.11472988 33.74584187 123.69777060
Te 10.25991585 32.49146036 125.59842237
Sb 8.11137640 31.23912887 127.49593741
Te 8.10685196 33.70860044 129.18396991
Te 8.10750568 28.72861222 131.88001968
Sb 8.10301730 31.19810525 133.56800419
Te 10.24816441 29.94370057 135.46874717
Sb 8.09968903 28.69140522 137.36637822
Te 8.09520304 31.16089948 139.05436206
Te 10.23916333 29.90091882 141.77577443
Sb 10.23468330 32.37041685 143.46375108
Te 12.37982450 31.11600863 145.36450758
Sb 10.23135842 29.86371831 147.26215522
Te 10.22687801 32.33321610 148.95013216
Te 8.07722394 31.07534917 151.66843009
Sb 8.07274328 33.54484669 153.35640723
Te 10.21788475 32.29043878 155.25716282
Sb 8.06941787 31.03814836 157.15480912
Te 8.06493749 33.50764600 158.84278703
Te 8.06552905 28.52762119 161.53878234
Sb 8.06104961 30.99711939 163.22676044
Te 10.20618963 29.74271061 165.12751336
Sb 8.05772418 28.49042074 167.02516824
Te 8.05324522 30.95991927 168.71313215
Te 10.19720274 29.69993565 171.43468052
Sb 10.19272397 32.16943431 173.12260870
Te 12.33786430 30.91502445 175.02346987
Sb 10.18937850 29.66272745 176.92092420
Te 10.18490740 32.13222880 178.60924186
Te 8.03549074 30.87450361 181.32366450
Sb 8.03059768 33.34374463 183.01354031
Te 10.17624770 32.08963009 184.91336149
Sb 8.02777466 30.83736027 186.81223713
Te 8.02263773 33.30667671 188.48746111
Te 8.42091138 30.58425917 191.67441361
Sb 8.41109159 33.05086303 193.35540231
Te 10.56222118 31.79986579 195.25170097
Sb 8.40373955 30.54194914 197.12940851
Te 8.39421612 33.00852322 198.81925179
Te 8.32802890 35.43635363 201.53247994
Bi 6.23123733 34.21376363 203.41507106
Te 6.31996219 36.73523006 205.41051082
Bi 8.40279584 35.34184511 1.95750967
Te 6.19478887 34.05731901 3.58047719
Te 8.61817663 35.43516146 6.60562913
Bi 6.56550181 34.24371771 8.56628162
Te 6.71299061 36.80054651 10.49903980
Bi 8.69288939 35.45143026 12.70410941
Te 6.45146354 34.13578617 14.24892103
Te 8.56276471 35.03916712 17.30367500
Bi 6.50918623 33.85419082 19.26681557
Te 6.66631992 36.41473757 21.19239798
Bi 8.63701880 35.05670835 23.40440577
Te 6.39134218 33.74170148 24.94458676
Te 8.26791497 34.99950779 28.02191106
Bi 6.22059804 33.80870888 29.98472201
Te 6.38114352 36.37259589 31.90628099
Bi 8.34809053 35.01280295 34.12063062
Te 6.09892557 33.70152834 35.65885483
Te 7.98074375 34.95718932 38.73559758
Bi 5.93074077 33.77034039 40.69736784
Te 6.08807007 36.33294000 42.62134749
Bi 8.05922597 34.97854696 44.83216989
Te 5.81571559 33.66045091 46.37158711
Te 7.93164955 34.56541319 49.42631980
Bi 5.87631989 33.38391810 51.38922129
Te 6.03079207 35.94354765 53.31656707
Bi 8.00514214 34.59056716 55.52536599
Te 5.76446007 33.26914867 57.06612623
Te 7.87452490 34.17842119 60.12211727
Bi 5.82227960 32.99127488 62.08520182
Te 5.97960069 35.55138511 64.01058380
Bi 7.95014207 34.19414539 66.22218079
Te 5.70305212 32.88253676 67.76316627
Te 7.75241405 33.85334006 70.83655791
Bi 5.70583750 32.65704236 72.79500152
Te 5.85893500 35.21608038 74.72317154
Bi 7.83769678 33.86393756 76.92962164
Te 5.59140698 32.55821446 78.47369848
Te 8.09890788 33.98791172 81.51895558
Bi 6.02008514 32.77594179 83.42543309
Te 6.12096708 35.30457645 85.40479267
Bi 8.16228628 33.98871445 87.55280403
Te 5.95258290 32.70261055 89.17078220
Te 10.35092542 35.22688609 91.91853635
Bi 8.16063747 33.95179246 93.57902404
Te 8.10218006 36.38743894 95.71806701
Bi 10.30244404 35.16422469 97.72885640
Te 8.19084869 33.93356563 99.57606007
Te 5.99339381 32.64841411 102.23753558
Sb 5.99264070 35.12009092 103.92123063
Te 8.13519148 33.86414406 105.82913330
Sb 5.99215524 32.61493585 107.73653775
Te 5.99055378 35.08611904 109.42072776
Te 8.13163921 33.82449102 112.14002557
Sb 8.12656747 36.29364384 113.82855072
Te 10.27212788 35.03948371 115.72836447
Sb 8.12302891 33.78683490 117.62487255
Te 8.11814706 36.25609788 119.31334610
Te 5.96902712 34.99853837 122.03203249
Sb 5.96448314 37.46799906 123.72006523
Te 8.10966916 36.21361746 125.62071700
Sb 5.96112984 34.96128590 127.51823211
Te 5.95660534 37.43075770 129.20626435
Te 5.95725903 32.45076915 131.90231452
Sb 5.95277076 34.92026241 133.59029893
Te 8.09791782 33.66585777 135.49104182
Sb 5.94944248 32.41356223 137.38867284
Te 5.94495651 34.88305665 139.07665680
Te 8.08891670 33.62307591 141.79806903
Sb 8.08443658 36.09257389 143.48604567
Te 10.22957785 34.83816566 145.38680219
Sb 8.08111187 33.58587535 147.28444994
Te 8.07663138 36.05537320 148.97242676
Te 5.92697735 34.79750628 151.69072470
Sb 5.92249665 37.26700385 153.37870183
Te 8.06763817 36.01259588 155.27945736
Sb 5.91917147 34.76030532 157.17710372
Te 5.91469106 37.22980309 158.86508172
Te 5.91528262 32.24977822 161.56107712
Sb 5.91080300 34.71927648 163.24905509
Te 8.05594305 33.46486784 165.14980803
Sb 5.90747770 32.21257790 167.04746296
Te 5.90299879 34.68207637 168.73542697
Te 8.04695615 33.42209254 171.45697520
Sb 8.04247746 35.89159135 173.14490328
Te 10.18761750 34.63718156 175.04576465
Sb 8.03913195 33.38488445 176.94321913
Te 8.03466088 35.85438594 178.63153642
Te 5.88524410 34.59666057 181.34595941
Sb 5.88035116 37.06590181 183.03583518
Te 8.02600118 35.81178713 184.93565629
Sb 5.87752801 34.55951739 186.83453201
Te 5.87239098 37.02883400 188.50975591
Te 6.27066478 34.30641610 191.69670856
Sb 6.26084508 36.77302001 193.37769707
Te 8.41197464 35.52202295 195.27399591
Sb 6.25349309 34.26410620 197.15170348
Te 6.24396953 36.73068046 198.84154647
Te 6.17778231 39.15851050 201.55477481
Bi 4.08099087 37.93592081 203.43736629
Te 4.16971548 40.45738758 205.43280549
Bi 6.25254912 39.06400218 1.97980405
Te 4.04454235 37.77947651 3.60277194
Te 6.46792982 39.15731806 6.62792357
Bi 4.41525521 37.96587493 8.58857653
Te 4.56274395 40.52270395 10.52133431
Bi 6.54264269 39.17358737 12.72640401
Te 4.30121681 37.85794350 14.27121554
Te 6.41251810 38.76132399 17.32596950
Bi 4.35893962 37.57634767 19.28911050
Te 4.51607315 40.13689472 21.21469261
Bi 6.48677205 38.77886552 23.42670045
Te 4.24109567 37.46385861 24.96688154
Te 6.11766848 38.72166465 28.04420581
Bi 4.07035156 37.53086582 30.00701700
Te 4.23089691 40.09475316 31.92857570
Bi 6.19784389 38.73496015 34.14292521
Te 3.94867895 37.42368577 35.68114960
Te 5.83049730 38.67934628 38.75789235
Bi 3.78049430 37.49249720 40.71966262
Te 3.93782356 40.05509696 42.64364223
Bi 5.90897937 38.70070423 44.85446499
Te 3.66546906 37.38260814 46.39388198
Te 5.78140302 38.28757003 49.44861477
Bi 3.72607336 37.10607500 51.41151651
Te 3.88054544 39.66570496 53.33886181
Bi 5.85489561 38.31272460 55.54766084
Te 3.61421362 36.99130594 57.08842125
Te 5.72427845 37.90057815 60.14441214
Bi 3.67203320 36.71343191 62.10749678
Te 3.82935398 39.27354211 64.03287856
Bi 5.79989561 37.91630273 66.24447562
Te 3.55280565 36.60469412 67.78546107
Te 5.60216754 37.57549691 70.85885281
Bi 3.55559097 36.37919934 72.81729658
Te 3.70868843 38.93823764 74.74546628
Bi 5.68745027 37.58609481 76.95191650
Te 3.44116050 36.28037194 78.49599345
Te 5.94866152 37.71006908 81.54125038
Bi 3.86983855 36.49809895 83.44772770
Te 3.97072031 39.02673356 85.42708728
Bi 6.01203963 37.71087162 87.57509856
Te 3.80233637 36.42476755 89.19307686
Te 8.20067878 38.94904326 91.94083099
Bi 6.01039084 37.67394951 93.60131871
Te 5.95193350 40.10959618 95.74036152
Bi 8.15219759 38.88638185 97.75115099
Te 6.04060212 37.65572272 99.59835459
Te 3.84314709 36.37057107 102.25983015
Sb 3.84239407 38.84224798 103.94352520
Te 5.98494474 37.58630118 105.85142791
Sb 3.84190871 36.33709278 107.75883217
Te 3.84030714 38.80827606 109.44302230
Te 5.98139259 37.54664818 112.16232023
Sb 5.97632089 40.01580101 113.85084524
Te 8.12188116 38.76164082 115.75065886
Sb 5.97278217 37.50899199 117.64716709
Te 5.96790037 39.97825495 119.33564058
Te 3.81878047 38.72069540 122.05432721
Sb 3.81423638 41.19015623 123.74235976
Te 5.95942249 39.93577474 125.64301158
Sb 3.81088322 38.68344308 127.54052663
Te 3.80635846 41.15291493 129.22855894
Te 3.80701245 36.17292628 131.92460913
Sb 3.80252417 38.64241953 133.61259360
Te 5.94767114 37.38801484 135.51333657
Sb 3.79919579 36.13571934 137.41096751
Te 3.79470977 38.60521364 139.09895143
Te 5.93867018 37.34523283 141.82036364
Sb 5.93418993 39.81473095 143.50834014
Te 8.07933106 38.56032278 145.40909667
Sb 5.93086527 37.30803260 147.30674452
Te 5.92638468 39.77753048 148.99472128
Te 3.77673071 38.51966337 151.71301935
Sb 3.77225004 40.98916098 153.40099647
Te 5.91739159 39.73475305 155.30175200
Sb 3.76892475 38.48246268 157.19939837
Te 3.76444424 40.95196026 158.88737615
Te 3.76503600 35.97193538 161.58337166
Sb 3.76055642 38.44143365 163.27134976
Te 5.90569648 37.18702494 165.17210260
Sb 3.75723101 35.93473504 167.06975768
Te 3.75275210 38.40423356 168.75772155
Te 5.89670960 37.14424955 171.47926995
Sb 5.89223075 39.61374851 173.16719805
Te 8.03737107 38.35933860 175.06805923
Sb 5.88888542 37.10704151 176.96551356
Te 5.88441438 39.57654290 178.65383105
Te 3.73499748 38.31881769 181.36825417
Sb 3.73010450 40.78805895 183.05812993
Te 5.87575457 39.53394436 184.95795105
Sb 3.72728133 38.28167469 186.85682661
Te 3.72214435 40.75099133 188.53205056
Te 4.12041823 38.02857285 191.71900337
Sb 4.11059849 40.49517692 193.39999182
Te 6.26172811 39.24417990 195.29629068
Sb 4.10324645 37.98626316 197.17399833
Te 4.09372273 40.45283743 198.86384121
Te 4.02753564 42.88066757 201.57706910
Bi 1.93074426 41.65807789 203.45966065
Te 2.01946877 44.17954468 205.45509984
Bi 4.10230245 42.78615959 2.00209891
Te 1.89429547 41.50163369 3.62506643
Te 4.31768296 42.87947531 6.65021788
Bi 2.26500849 41.68803186 8.61087102
Te 2.41249700 44.24486098 10.54362863
Bi 4.39239577 42.89574491 12.74869855
Te 2.15096986 41.58010077 14.29351011
Te 4.26227144 42.48348088 17.34826419
Bi 2.20869294 41.29850476 19.31140489
Te 2.36582604 43.85905175 21.23698702
Bi 4.33652516 42.50102287 23.44899476
Te 2.09084882 41.18601580 24.98917614
Te 3.96742194 42.44382155 28.06650036
Bi 1.92010491 41.25302292 30.02931150
Te 2.08065020 43.81691031 31.95086998
Bi 4.04759713 42.45711754 34.16521968
Te 1.79843221 41.14584283 35.70344391
Te 3.68025074 42.40150294 38.78018697
Bi 1.63024771 41.21465411 40.74195748
Te 1.78757666 43.77725434 42.66593654
Bi 3.75873256 42.42286159 44.87675924
Te 1.51522226 41.10476561 46.41617652
Te 3.63115653 42.00972696 49.47090938
Bi 1.57582668 40.82823213 51.43381101
Te 1.73029847 43.38786230 53.36115624
Bi 3.70464877 42.03488210 55.56995519
Te 1.46396699 40.71346341 57.11071570
Te 3.57403191 41.62273524 60.16670679
Bi 1.52178656 40.43558916 62.12979142
Te 1.67910724 42.99569932 64.05517307
Bi 3.64964906 41.63846022 66.26677013
Te 1.40255912 40.32685145 67.80775595
Te 3.45192110 41.29765380 70.88114744
Bi 1.40534454 40.10135646 72.83959135
Te 1.55844180 42.66039489 74.76776082
Bi 3.53720385 41.30825205 76.97421094
Te 1.29091411 40.00252896 78.51828810
Te 3.79841494 41.43222614 81.56354486
Bi 1.71959196 40.22025598 83.47002236
Te 1.82047377 42.74889081 85.44938174
Bi 3.86179296 41.43302887 87.59739307
Te 1.65208972 40.14692484 89.21537146
Te 6.05043213 42.67120069 91.96312553
Bi 3.86014417 41.39610690 93.62361307
Te 3.80168675 43.83175323 95.76265622
Bi 6.00195093 42.60853902 97.77344547
Te 3.89035540 41.37787987 99.62064901
Te 1.69290050 40.09272828 102.28212479
Sb 1.69214730 42.56440525 103.96581968
Te 3.83469811 41.30845843 105.87372236
Sb 1.69166189 40.05925014 107.78112688
Te 1.69006030 42.53043337 109.46531671
Te 3.83114587 41.26880527 112.18461457
Sb 3.82607409 43.73795844 113.87313966
Te 5.97163446 42.48379798 115.77295333
Sb 3.82253545 41.23114916 117.66946161
Te 3.81765367 43.70041238 119.35793484
Te 1.66853378 42.44285258 122.07662166
Sb 1.66398988 44.91231342 123.76465417
Te 3.80917576 43.65793183 125.66530600
Sb 1.66063634 42.40560033 127.56282107
Te 1.65611175 44.87507216 129.25085321
Te 1.65676581 39.89508357 131.94690395
Sb 1.65227741 42.36457677 133.63488827
Te 3.79742442 41.11017204 135.53563120
Sb 1.64894912 39.85787637 137.43326211
Te 1.64446304 42.32737103 139.12124597
Te 3.78842354 41.06738991 141.84265807
Sb 3.78394319 43.53688811 143.53063461
Te 5.92908450 42.28247992 145.43139110
Sb 3.78061853 41.03018969 147.32903884
Te 3.77613799 43.49968757 149.01701551
Te 1.62648412 42.24182054 151.73531391
Sb 1.62200316 44.71131823 153.42329078
Te 3.76714488 43.45691025 155.32404634
Sb 1.61867819 42.20461967 157.22169289
Te 1.61419741 44.67411757 158.90967046
Te 1.61478922 39.69409252 161.60566626
Sb 1.61030979 42.16359081 163.29364431
Te 3.75544980 40.90918213 165.19439723
Sb 1.60698433 39.65689192 167.09205223
Te 1.60250541 42.12639068 168.78001602
Te 3.74646305 40.86640670 171.50156453
Sb 3.74198417 43.33590568 173.18949258
Te 5.88712445 42.08149586 175.09035380
Sb 3.73863870 40.82919879 176.98780799
Te 3.73416752 43.29870013 178.67612534
Te 1.58475089 42.04097472 181.39054887
Sb 1.57985783 44.51021598 183.08042441
Te 3.72550787 43.25610168 184.98024549
Sb 1.57703461 42.00383213 186.87912114
Te 1.57189750 44.47314871 188.55434484
Te 1.97017172 41.75072991 191.74129800
Sb 1.96035186 44.21733405 193.42228633
Te 4.11148133 42.96633697 195.31858532
Sb 1.95299974 41.70842022 197.19629286
Te 1.94347603 44.17499461 198.88613568
Te 1.87728859 46.60282465 201.59936336
Bi -0.21950260 45.38023495 203.48195513
Te -0.13077821 47.90170209 205.47739383
Bi 1.95205551 46.50831687 2.02439292
Te -0.25595145 45.22379137 3.64736068
Te 2.16743614 46.60163233 6.67251201
Bi 0.11476171 45.41018912 8.63316520
Te 0.26224977 47.96701848 10.56592260
Bi 2.24214881 46.61790233 12.77099236
Te 0.00072293 45.30225835 14.31580431
Te 2.11202478 46.20563778 17.37055818
Bi 0.05844608 45.02066185 19.33369906
Te 0.21557938 47.58120909 21.25928083
Bi 2.18627827 46.22318017 23.47128872
Te -0.05939812 44.90817334 25.01147024
Te 1.81717508 46.16597829 28.08879437
Bi -0.23014186 44.97517991 30.05160576
Te -0.06959692 47.53906741 31.97316381
Bi 1.89735030 46.17927509 34.18751360
Te -0.35181482 44.86800050 35.72573822
Te 1.53000390 46.12365987 38.80248097
Bi -0.51999906 44.93681133 40.76425162
Te -0.36267030 47.49941160 42.68823048
Bi 1.60848561 46.14501893 44.89905338
Te -0.63502453 44.82692305 46.43847073
Te 1.48090983 45.73188385 49.49320340
Bi -0.57442008 44.55038927 51.45610524
Te -0.41994860 47.11001951 53.38345031
Bi 1.55440193 45.75703945 55.59224930
Te -0.68627985 44.43562100 57.13301001
Te 1.42378520 45.34489217 60.18900093
Bi -0.62846013 44.15774627 62.15208585
Te -0.47113985 46.71785659 64.07746718
Bi 1.49940216 45.36061780 66.28906402
Te -0.74768743 44.04900909 67.83005011
Te 1.30167448 45.01981088 70.90344181
Bi -0.74490214 43.82351369 72.86188572
Te -0.59180495 46.38255225 74.79005489
Bi 1.38695713 45.03040950 76.99650528
Te -0.85933273 43.72468656 78.54058231
Te 1.64816814 45.15438341 81.58583913
Bi -0.43065454 43.94241306 83.49231668
Te -0.32977305 46.47104806 85.47167584
Bi 1.71154610 45.15518624 87.61968738
Te -0.49815703 43.86908229 89.23766583
Te 3.90018523 46.39335783 91.98541986
Bi 1.70989725 45.11826425 93.64590746
Te 1.65143983 47.55391079 95.78495031
Bi 3.85170410 46.33069657 97.79573961
Te 1.74010870 45.10003745 99.64294326
Te -0.45734611 43.81488555 102.30441919
Sb -0.45809941 46.28656252 103.98811390
Te 1.68445133 45.03061570 105.89601678
Sb -0.45858485 43.78140743 107.80342120
Te -0.46018663 46.25259087 109.48761112
Te 1.68089901 44.99096254 112.20690906
Sb 1.67582734 47.46011562 113.89543382
Te 3.82138754 46.20595539 115.79524770
Sb 1.67228870 44.95330656 117.69175585
Te 1.66740661 47.42256974 119.38022907
Te -0.48171309 46.16500975 122.09891600
Sb -0.48625715 48.63447082 123.78694838
Te 1.65892893 47.38008922 125.68760024
Sb -0.48961042 46.12775755 127.58511549
Te -0.49413517 48.59722960 129.27314727
Te -0.49348084 43.61724073 131.96919847
Sb -0.49796946 46.08673399 133.65718266
Te 1.64717770 44.83232935 135.55792560
Sb -0.50129756 43.58003371 137.45555658
Te -0.50578387 46.04952841 139.14354039
Te 1.63817680 44.78954724 141.86495258
Sb 1.63369640 47.25904553 143.55292897
Te 3.77883774 46.00463725 145.45368549
Sb 1.63037182 44.75234702 147.35133327
Te 1.62589109 47.22184499 149.03930983
Te -0.52376277 45.96397779 151.75760822
Sb -0.52824364 48.43347559 153.44558511
Te 1.61689802 47.17906752 155.34634072
Sb -0.53156850 45.92677704 157.24398721
Te -0.53604936 48.39627491 158.93196480
Te -0.53545747 43.41624973 161.62796093
Sb -0.53993706 45.88574811 163.31593866
Te 1.60520305 44.63133933 165.21669165
Sb -0.54326238 43.37904924 167.11434678
Te -0.54774138 45.84854803 168.80231036
Te 1.59621645 44.58856379 171.52385895
Sb 1.59173738 47.05806275 173.21178681
Te 3.73687771 45.80365309 175.11264827
Sb 1.58839185 44.55135604 177.01010234
Te 1.58392061 47.02085754 178.69841958
Te -0.56549589 45.76313201 181.41284323
Sb -0.57038911 48.23237336 183.10271849
Te 1.57526091 46.97825900 185.00253972
Sb -0.57321225 45.72598952 186.90141547
Te -0.57834943 48.19530634 188.57663913
Te -0.18007507 45.47288689 191.76359244
Sb -0.18989517 47.93949117 193.44458076
Te 1.96123457 46.68849434 195.34087958
Sb -0.19724693 45.43057750 197.21858733
Te -0.20677082 47.89715203 198.90842979
Te -0.27295830 50.32498210 201.62165736
Bi -2.36974958 49.10239242 203.50424902
Te -2.28102495 51.62385939 205.49968785
Bi -0.19819141 50.23047437 2.04668723
Te -2.40619861 48.94594861 3.66965455
Te 0.01718909 50.32378963 6.69480597
Bi -2.03548566 49.13234633 8.65545883
Te -1.88799735 51.68917566 10.58821620
Bi 0.09190148 50.34005982 12.79328629
Te -2.14952424 49.02441583 14.33809808
Te -0.03822245 49.92779506 17.39285188
Bi -2.09180097 48.74281897 19.35599276
Te -1.93466791 51.30336647 21.28157436
Bi 0.03603111 49.94533775 23.49358224
Te -2.20964508 48.63033102 25.03376394
Te -0.33307187 49.88813551 28.11108819
Bi -2.38038883 48.69733725 30.07389952
Te -2.21984396 51.26122498 31.99545719
Bi -0.25289673 49.90143267 34.20980733
Te -2.50206176 48.59015811 35.74803203
Te -0.62024309 49.84581711 38.82477474
Bi -2.67024602 48.65896829 40.78654549
Te -2.51291751 51.22156883 42.71052389
Bi -0.54176136 49.86717640 44.92134702
Te -2.78527142 48.54908075 46.46076456
Te -0.66933717 49.45404120 49.51549726
Bi -2.72466698 48.27254643 51.47839899
Te -2.57019555 50.83217696 53.40574369
Bi -0.59584523 49.47919703 55.61454283
Te -2.83652659 48.15777870 57.15530383
Te -0.72646149 49.06704953 60.21129487
Bi -2.77870688 47.87990359 62.17437953
Te -2.62138696 50.44001400 64.09976096
Bi -0.65084468 49.08277515 66.31135769
Te -2.89793445 47.77116663 67.85234415
Te -0.84857223 48.74196825 70.92573591
Bi -2.89514884 47.54567079 72.88417965
Te -2.74205198 50.10470942 74.81234887
Bi -0.76328994 48.75256683 77.01879937
Te -3.00957951 47.44684417 78.56287639
Te -0.50207867 48.87654070 81.60813320
Bi -2.58090142 47.66457047 83.51461083
Te -2.48001998 50.19320546 85.49396991
Bi -0.43870067 48.87734372 87.64198138
Te -2.64840404 47.59123968 89.25996016
Te 1.74993849 50.11551536 92.00771413
Bi -0.44034954 48.84042181 93.66820181
Te -0.49880714 51.27606848 95.80724459
Bi 1.70145712 50.05285413 97.81803378
Te -0.41013816 48.82219486 99.66523749
Te -2.60759302 47.53704294 102.32671353
Sb -2.60834633 50.00871988 104.01040824
Te -0.46579550 48.75277302 105.91831096
Sb -2.60883170 47.50356483 107.82571553
Te -2.61043345 49.97474845 109.50990527
Te -0.46934776 48.71311985 112.22920322
Sb -0.47441965 51.18227314 113.91772814
Te 1.67114075 49.92811280 115.81754183
Sb -0.47795807 48.67546393 117.71405013
Te -0.48284011 51.14472709 119.40252321
Te -2.63195998 49.88716715 122.12121010
Sb 27.46694995 0.24642737 123.49711963
Te -0.49131796 51.10224677 125.70989415
Sb -2.63985697 49.84991509 127.60740953
Te 27.45907202 0.20918625 128.98331850
Te -2.64372768 47.33939806 131.99149290
Sb -2.64821634 49.80889134 133.67947689
Te -0.50306906 48.55448678 135.58022012
Sb -2.65154438 47.30219106 137.47785095
Te -2.65603080 49.77168577 139.16583457
Te -0.51207019 48.51170442 141.88724679
Sb -0.51655033 50.98120294 143.57522285
Te 1.62859076 49.72679462 145.47597966
Sb -0.51987504 48.47450432 147.37362738
Te -0.52435593 50.94400256 149.06160377
Te -2.67400963 49.68613515 151.77990252
Sb 27.42496352 0.04543214 153.15575637
Te -0.53334889 50.90122485 155.36863488
Sb -2.68181546 49.64893426 157.26628137
Te -2.68629637 52.11843230 158.95425900
Te -2.68570434 47.13840694 161.65025541
Sb -2.69018394 49.60790543 163.33823302
Te -0.54504391 48.35349672 165.23898605
Sb -2.69350916 47.10120660 167.13664099
Te -2.69798832 49.57070550 168.82460455
Te -0.55403059 48.31072116 171.54615318
Sb -0.55850953 50.78022022 173.23408109
Te 1.58663076 49.52581034 175.13494228
Sb -0.56185504 48.27351328 177.03239652
Te -0.56632633 50.74301498 178.72071365
Te -2.71574281 49.48528926 181.43513728
Sb -2.72063594 51.95453080 183.12501243
Te -0.57498601 50.70041648 185.02483376
Sb -2.72345914 49.44814703 186.92370963
Te -2.72859646 51.91746410 188.59893280
Te -2.33032201 49.19504421 191.78588667
Sb -2.34014213 51.66164858 193.46687469
Te -0.18901243 50.41065160 195.36317358
Sb -2.34749383 49.15273482 197.24088137
Te -2.35701801 51.61930959 198.93072365
Te 32.10369051 2.00938059 201.37354026
Bi 29.90385749 0.72914505 203.01946991
Te 29.80186081 3.13954864 205.18047894
Bi 32.08414920 1.86270038 1.53373575
Te 29.99647373 0.64503213 3.42310487
Te 32.50518512 2.07795794 6.47246482
Bi 30.26278052 0.76765560 8.01860331
Te 30.09586926 3.13943833 10.24454310
Bi 32.39555211 1.97300728 12.15429295
Te 30.34130972 0.78583106 14.11366345
Te 32.45962390 1.69503028 17.16715723
Bi 30.21686598 0.37677728 18.70756059
Te 30.03846557 2.74502712 20.94003767
Bi 32.34547227 1.58518841 22.84215855
Te 30.29502469 0.39841465 24.80336735
Te 32.17737982 1.65420623 27.88007961
Bi 29.92824416 0.34295788 29.41835996
Te 29.74494937 2.70532139 31.65497094
Bi 32.05575140 1.54705310 33.55419674
Te 30.00845444 0.35627700 35.51705735
Te 31.88532179 1.61411097 38.59455409
Bi 29.63920428 0.29918127 40.13409119
Te 29.45903348 2.66297927 42.36876301
Bi 31.76700987 1.50176560 44.27134157
Te 29.71416836 0.31661473 46.23529235
Te 31.82535049 1.22350040 49.29087497
Bi -0.51878307 52.01221676 51.14368485
Te 29.40879464 2.27123623 53.06267039
Bi 31.71349651 1.10871992 54.96775839
Te -0.44525838 52.03738274 57.24267448
Te 31.77305070 0.83233115 59.98538766
Bi -0.57454315 51.62645871 61.83786840
Te 29.35039627 1.88466546 63.75843102
Bi 31.65731904 0.72448003 65.66102350
Te -0.49460585 51.64366668 67.93366698
Te 31.65674371 0.49749160 70.69539955
Bi -0.69537062 51.30149509 72.55090631
Te 29.23229740 1.55901734 74.47016536
Bi 31.53454290 0.39500524 76.37726020
Te -0.61814376 51.30889145 78.65169670
Te 31.91789464 0.58626603 81.37015805
Bi -0.40168261 51.40668355 83.28733974
Te 29.58413789 1.69766048 85.16408315
Bi 31.83142415 0.50189283 87.12899108
Te -0.35924903 51.39524192 89.34429986
Te 33.90736318 1.67399782 91.66542787
Bi 31.80131488 0.44647838 93.52529078
Te 31.85001410 2.94467770 95.55477134
Bi 33.93829159 1.65619264 97.66144280
Te 31.75418919 0.38454954 99.34456724
Te -0.45273708 51.26363569 102.36768281
Sb 29.64256721 1.62080500 103.74474217
Te 31.79034656 0.36796182 105.63861466
Sb -0.46699946 51.22279696 107.83807044
Te 29.62910923 1.58041787 109.21757271
Te 31.77595664 0.32209492 111.94099292
Sb 31.77206500 2.79193654 113.62843196
Te 33.91678956 1.53728220 115.53011957
Sb 31.76895421 0.28534972 117.42891008
Te 31.76487430 2.75508231 119.11638837
Te 29.61468732 1.49691028 121.83431010
Sb 29.61026937 3.96644482 123.52223152
Te 31.75536666 2.71201073 125.42309077
Sb 29.60697221 1.45976103 127.32086853
Te 29.60253505 3.92928456 129.00879079
Te -0.50038546 51.05942681 132.01687584
Sb 29.59859482 1.41872834 133.39272298
Te 31.74373111 0.16431714 135.29349079
Sb -0.50818152 51.02223208 137.50327534
Te 29.59079663 1.38153204 138.87912281
Te 31.73474791 0.12154533 141.60052948
Sb 31.73026571 2.59104264 143.28850714
Te 33.87540814 1.33663493 145.18926095
Sb 31.72694031 0.08434387 147.08690568
Te 31.72245863 2.55384122 148.77488322
Te 29.57280677 1.29597464 151.49318350
Sb 29.56832535 3.76547242 153.18116038
Te 31.71346733 2.51106456 155.08191543
Sb 29.56499997 1.25877361 156.97956084
Te 29.56051879 3.72827137 158.66753885
Te -0.54234008 50.85844837 161.67566001
Sb 29.55663154 1.21774454 163.05151739
Te 1.59832094 52.07353853 165.26439037
Sb -0.55014769 50.82124678 167.16203783
Te 29.54882335 1.18054260 168.53788284
Te 1.58932178 52.03075725 171.57153677
Sb 31.68829265 2.39005379 172.94734170
Te 33.83343551 1.13564608 174.84819454
Sb 1.58153452 51.99356502 177.05782675
Te 31.68049577 2.35285288 178.43406589
Te 29.53060486 1.09489201 181.14858485
Sb 29.52653666 3.56462487 182.83762791
Te 31.67116367 2.30993777 184.73843858
Sb 29.52269479 1.05750400 186.63778791
Te 29.51888734 3.52754351 188.31173070
Te 29.90378639 0.79768148 191.49093182
Sb 29.90469531 3.27045610 193.15920774
Te 32.04386133 2.01253373 195.06597848
Sb 29.90541179 0.76587889 196.98424927
Te 29.90622379 3.23846064 198.66716079
Te 29.95344325 5.73153833 201.39583422
Bi 27.75361045 4.45130262 203.04176413
Te 27.65161365 6.86170623 205.20277315
Bi 29.93390229 5.58485778 1.55602956
Te 27.84622695 4.36718923 3.44539892
Te 30.35493792 5.80011546 6.49475869
Bi 28.11253333 4.48981307 8.04089678
Te 27.94562247 6.86159549 10.26683702
Bi 30.24530518 5.69516452 12.17658692
Te 28.19106281 4.50798824 14.13595725
Te 30.30937686 5.41718802 17.18945080
Bi 28.06661866 4.09893488 18.72985384
Te 27.88821873 6.46718436 20.96233151
Bi 30.19522543 5.30734563 22.86445262
Te 28.14477755 4.12057181 24.82566096
Te 30.02713251 5.37636403 27.90237308
Bi 27.77799696 4.06511524 29.44065332
Te 27.59470236 6.42747859 31.67726445
Bi 29.90550442 5.26921057 33.57649027
Te 27.85820765 4.07843411 35.53935071
Te 29.73507449 5.33626855 38.61684753
Bi 27.48895702 4.02133870 40.15638454
Te 27.30878648 6.38513640 42.39105675
Bi 29.61676300 5.22392295 44.29363556
Te 27.56392134 4.03877161 46.25758576
Te 29.67510346 4.94565827 49.31316842
Bi 27.43442380 3.62417353 50.85385504
Te 27.25854754 5.99339340 53.08496393
Bi 29.56324954 4.83087727 54.99005203
Te 27.50794875 3.64933944 56.95284502
Te 29.62280365 4.55448904 60.00768112
Bi 27.37866373 3.23841532 61.54803880
Te 27.20014915 5.60682292 63.78072495
Bi 29.50707202 4.44663737 65.68331715
Te 27.45860125 3.25562308 67.64383801
Te 29.50649644 4.21964910 70.71769325
Bi 27.25783623 2.91345151 72.26107731
Te 27.08205020 5.28117466 74.49245917
Bi 29.38429595 4.11716279 76.39955392
Te 27.33506335 2.92084809 78.36186774
Te 29.76764760 4.30842358 81.39245196
Bi 27.55152441 3.01864017 82.99751073
Te 27.43389100 5.41981800 85.18637714
Bi 29.68117697 4.22405024 87.15128501
Te 27.59395811 3.00719838 89.05447106
Te 31.75711594 5.39615533 91.68772191
Bi 29.65106770 4.16863584 93.54758491
Te 29.69976726 6.66683513 95.57706548
Bi 31.78804471 5.37835004 97.68373693
Te 29.60394228 4.10670709 99.36686142
Te 27.50047005 2.87559246 102.07785414
Sb 27.49232034 5.34296238 103.76703648
Te 29.64009966 4.09011923 105.66090884
Sb 27.48620760 2.83475346 107.54824183
Te 27.47886237 5.30257526 109.23986694
Te 29.62570970 4.04425225 111.96328696
Sb 29.62181811 6.51409391 113.65072617
Te 31.76654259 5.25943955 115.55241374
Sb 29.61870732 4.00750708 117.45120426
Te 29.61462737 6.47723968 119.13868269
Te 27.46444041 5.21906772 121.85660420
Sb 27.46002254 7.68860225 123.54452589
Te 29.60511982 6.43416806 125.44538492
Sb 27.45672516 5.18191840 127.34316266
Te 27.45228827 7.65144195 129.03108507
Te 27.45282149 2.67138342 131.72704710
Sb 27.44834802 5.14088572 133.41501723
Te 29.59348425 3.88647455 135.31578494
Sb 27.44502547 2.63418854 137.21344637
Te 27.44054993 5.10368945 138.90141707
Te 29.58450098 3.84370262 141.62282363
Sb 29.58001889 6.31319997 143.31080124
Te 31.72516135 5.05879238 145.21155516
Sb 29.57669346 3.80650119 147.10919963
Te 29.57221172 6.27599867 148.79717766
Te 27.42255969 5.01813216 151.51547762
Sb 27.41807839 7.48762976 153.20345474
Te 29.56322040 6.23322187 155.10420979
Sb 27.41475308 4.98093094 157.00185491
Te 27.41027186 7.45042850 158.68983315
Te 27.41086682 2.47040486 161.38583109
Sb 27.40638449 4.93990198 163.07381146
Te 29.55152800 3.68549502 164.97456155
Sb 27.40305936 2.43320329 166.87220910
Te 27.39857644 4.90270005 168.56017686
Te 29.54252880 3.64271392 171.28170810
Sb 29.53804563 6.11221107 172.96963585
Te 31.68318854 4.85780351 174.87048863
Sb 29.53474153 3.60552166 176.76799819
Te 29.53024890 6.07501028 178.45636017
Te 27.38035791 4.81704967 181.17087868
Sb 27.37628976 7.28678231 182.85992204
Te 29.52091673 6.03209511 184.76073273
Sb 27.37244788 4.77966146 186.66008196
Te 27.36864039 7.24970085 188.33402498
Te 27.75353937 4.51983903 191.51322566
Sb 27.75444828 6.99261365 193.18150159
Te 29.89361431 5.73469127 195.08827233
Sb 27.75516479 4.48803635 197.00654292
Te 27.75597659 6.96061790 198.68945469
Te 27.80319640 9.45369571 201.41812827
Bi 25.60336361 8.17346002 203.06405797
Te 25.50136690 10.58386338 205.22506721
Bi 27.78365558 9.30701508 1.57832385
Te 25.69598004 8.08934675 3.46769300
Te 28.20469106 9.52227302 6.51705281
Bi 25.96228642 8.21197046 8.06319114
Te 25.79537557 10.58375276 10.28913149
Bi 28.09505843 9.41732167 12.19888102
Te 26.04081616 8.23014517 14.15825128
Te 28.15912982 9.13934564 17.21174486
Bi 25.91637163 7.82109238 18.75214787
Te 25.73797179 10.18934175 20.98462580
Bi 28.04497862 9.02950280 22.88674645
Te 25.99453079 7.84272876 24.84795488
Te 27.87688569 9.09852165 27.92466710
Bi 25.62775009 7.78727287 29.46294712
Te 25.44445554 10.14963576 31.69955853
Bi 27.75525755 8.99136749 33.59878418
Te 25.70796079 7.80059122 35.56164459
Te 27.58482752 9.05842614 38.63914165
Bi 25.33871001 7.74349620 40.17867845
Te 25.15853959 10.10729376 42.41335086
Bi 27.46651615 8.94608013 44.31592935
Te 25.41367450 7.76092888 46.27987966
Te 27.52485647 8.66781579 49.33546222
Bi 25.28417681 7.34633108 50.87614875
Te 25.10830076 9.71555070 53.10725797
Bi 27.41300267 8.55303442 55.01234562
Te 25.35770209 7.37149661 56.97513877
Te 27.47255683 8.27664652 60.02997501
Bi 25.22841677 6.96057296 61.57033247
Te 25.04990212 9.32898010 63.80301897
Bi 27.35682516 8.16879463 65.70561074
Te 25.30835450 6.97778050 67.66613181
Te 27.35624953 7.94180656 70.73998719
Bi 25.10758922 6.63560894 72.28337102
Te 24.93180323 9.00333192 74.51475321
Bi 27.23404889 7.83931999 76.42184793
Te 25.18481637 6.64300527 78.38416183
Te 27.61740068 8.03058107 81.41474600
Bi 25.40127738 6.74079760 83.01980461
Te 25.28364410 9.14197535 85.20867150
Bi 27.53093029 7.94620768 87.17357930
Te 25.44371122 6.72935563 89.07676512
Te 29.60686908 9.11831270 91.71001630
Bi 27.50082088 7.89079311 93.56987917
Te 27.54952038 10.38899235 95.59935984
Bi 29.63779791 9.10050729 97.70603123
Te 27.45369554 7.82886442 99.38915571
Te 25.35022318 6.59774980 102.10014837
Sb 25.34207345 9.06511973 103.78933094
Te 27.48985277 7.81227661 105.68320326
Sb 25.33596087 6.55691087 107.57053621
Te 25.32861567 9.02473256 109.26216134
Te 27.47546287 7.76640972 111.98558127
Sb 27.47157131 10.23625111 113.67302062
Te 29.61629586 8.98159686 115.57470813
Sb 27.46846041 7.72966434 117.47349863
Te 27.46438055 10.19939673 119.16097717
Te 25.31419355 8.94122518 121.87889854
Sb 25.30977560 11.41075964 123.56682043
Te 27.45487295 10.15632534 125.46767946
Sb 25.30647825 8.90407571 127.36545698
Te 25.30204138 11.37359902 129.05337966
Te 25.30257463 6.39354092 131.74934128
Sb 25.29810112 8.86304311 133.43731154
Te 27.44323739 7.60863191 135.33807907
Sb 25.29477871 6.35634593 137.23574059
Te 25.29030305 8.82584682 138.92371120
Te 27.43425404 7.56586017 141.64511791
Sb 27.42977207 10.03535724 143.33309562
Te 29.57491445 8.78094966 145.23384960
Sb 27.42644652 7.52865850 147.13149399
Te 27.42196501 9.99815576 148.81947219
Te 25.27231287 8.74028951 151.53777192
Sb 25.26783165 11.20978694 153.22574921
Te 27.41297362 9.95537912 155.12650415
Sb 25.26450619 8.70308820 157.02414920
Te 25.26002517 11.17258562 158.71212748
Te 25.26061992 6.19256242 161.40812526
Sb 25.25613771 8.66205936 163.09610572
Te 27.40128088 7.40765242 164.99685577
Sb 25.25281244 6.15536070 166.89450338
Te 25.24832968 8.62485740 168.58247117
Te 27.39228179 7.36487132 171.30400224
Sb 27.38779879 9.83436842 172.99193015
Te 29.53294170 8.57996082 174.89278286
Sb 27.38449468 7.32767902 176.79029242
Te 27.38000194 9.79716751 178.47865448
Te 25.23011092 8.53920701 181.19317264
Sb 25.22604305 11.00893957 182.88221615
Te 27.37066998 9.75425238 184.78302696
Sb 25.22220096 8.50181874 186.68237617
Te 25.21839375 10.97185795 188.35631930
Te 25.60329236 8.24199671 191.53551981
Sb 25.60420146 10.71477097 193.20379598
Te 27.74336749 9.45684867 195.11056656
Sb 25.60491793 8.21019372 197.02883712
Te 25.60572994 10.68277510 198.71174902
Te 25.65294959 13.17585303 201.44042242
Bi 23.45311674 11.89561739 203.08635236
Te 23.35112036 14.30602049 205.24736179
Bi 25.63340867 13.02917235 1.60061831
Te 23.54573319 11.81150382 3.48998752
Te 26.05444433 13.24443042 6.53934732
Bi 23.81203967 11.93412795 8.08548526
Te 23.64512910 14.30591006 10.31142599
Bi 25.94481196 13.13947888 12.22117555
Te 23.89056951 11.95230218 14.18054560
Te 26.00888327 12.86150325 17.23403942
Bi 23.76612490 11.54324996 18.77444214
Te 23.58772505 13.91149905 21.00692040
Bi 25.89473193 12.75166003 22.90904110
Te 23.84428433 11.56488550 24.87024928
Te 25.72663873 12.82067899 27.94696155
Bi 23.47750306 11.50943027 29.48524147
Te 23.29420889 13.87179303 31.72185318
Bi 25.60501077 12.71352442 33.62107857
Te 23.55771415 11.52274773 35.58393910
Te 25.43458077 12.78058359 38.66143596
Bi 23.18846305 11.46565335 40.20097249
Te 23.00829290 13.82945091 42.43564533
Bi 25.31626937 12.66823721 44.33822388
Te 23.26342758 11.48308587 46.30217399
Te 25.37460968 12.38997328 49.35775653
Bi 23.13393000 11.06848851 50.89844291
Te 22.95805411 13.43770793 53.12955231
Bi 25.26275628 12.27519174 55.03463974
Te 23.20745545 11.09365353 56.99743294
Te 25.32231002 11.99880403 60.05226939
Bi 23.07816994 10.68273036 61.59262660
Te 22.89965526 13.05113727 63.82531333
Bi 25.20657828 11.89095174 65.72790500
Te 23.15810769 10.69993742 67.68842619
Te 25.20600269 11.66396413 70.76228151
Bi 22.95734232 10.35776642 72.30566503
Te 22.78155620 12.72548912 74.53704758
Bi 25.08380197 11.56147715 76.44414215
Te 23.03456961 10.36516226 78.40645602
Te 25.46715377 11.75273845 81.43704049
Bi 23.25103055 10.46295493 83.04209904
Te 23.13339725 12.86413263 85.23096589
Bi 25.38068345 11.66836486 87.19587352
Te 23.29346458 10.45151265 89.09905953
Te 27.45662237 12.84046981 91.73231073
Bi 25.35057408 11.61295033 93.59217372
Te 25.39927352 14.11114951 95.62165452
Bi 27.48755123 12.82266446 97.72832592
Te 25.30344879 11.55102141 99.41145037
Te 23.19997627 10.31990690 102.12244273
Sb 23.19182682 12.78727680 103.81162541
Te 25.33960597 11.53443396 105.70549775
Sb 23.18571412 10.27906816 107.59283060
Te 23.17836893 12.74688965 109.28445602
Te 25.32521604 11.48856692 112.00787568
Sb 25.32132469 13.95840840 113.69531511
Te 27.46604901 12.70375397 115.59700274
Sb 25.31821362 11.45182155 117.49579298
Te 25.31413385 13.92155390 119.18327183
Te 23.16394675 12.66338253 121.90119321
Sb 23.15952903 15.13291658 123.58911515
Te 25.30462634 13.87848264 125.48997407
Sb 23.15623162 12.62623283 127.38775149
Te 23.15179478 15.09575603 129.07567424
Te 23.15232772 10.11569821 131.77163559
Sb 23.14785437 12.58520022 133.45960612
Te 25.29299074 11.33078927 135.36037364
Sb 23.14453190 10.07850330 137.25803500
Te 23.14005635 12.54800395 138.94600580
Te 25.28400717 11.28801756 141.66741228
Sb 25.27952535 13.75751440 143.35539026
Te 27.42466775 12.50310692 145.25614419
Sb 25.27619977 11.25081559 147.15378852
Te 25.27171838 13.72031290 148.84176678
Te 23.12206610 12.46244661 151.56006634
Sb 23.11758489 14.93194394 153.24804367
Te 25.26272686 13.67753620 155.14879856
Sb 23.11425962 12.42524552 157.04644363
Te 23.10977846 14.89474280 158.73442201
Te 23.11037300 9.91471974 161.43041955
Sb 23.10589097 12.38421661 163.11840010
Te 25.25103421 11.12980971 165.01915011
Sb 23.10256565 9.87751807 166.91679766
Te 23.09808284 12.34701446 168.60476569
Te 25.24203498 11.08702869 171.32629659
Sb 25.23755196 13.55652553 173.01422448
Te 27.38269485 12.30211813 174.91507729
Sb 25.23424768 11.04983636 176.81258679
Te 25.22975527 13.51932472 178.50094885
Te 23.07986420 12.26136434 181.21546694
Sb 23.07579647 14.73109673 182.90451078
Te 25.22042322 13.47640942 184.80532139
Sb 23.07195428 12.22397578 186.70467065
Te 23.06814709 14.69401500 188.37861378
Te 23.45304559 11.96415421 191.55781412
Sb 23.45395458 14.43692834 193.22609046
Te 25.59312065 13.17900595 195.13286095
Sb 23.45467112 11.93235104 197.05113131
Te 23.45548310 14.40493225 198.73404340
Te 23.50270294 16.89801026 201.46271704
Bi 21.30287011 15.61777448 203.10864694
Te 21.20087368 18.02817771 205.26965646
Bi 23.48316213 16.75132958 1.62291306
Te 21.39548651 15.53366074 3.51228206
Te 23.90419792 16.96658769 6.56164196
Bi 21.66179307 15.65628541 8.10777997
Te 21.49488257 18.02806711 10.33372081
Bi 23.79456554 16.86163598 12.24347034
Te 21.74032312 15.67445912 14.20284032
Te 23.85863674 16.58366063 17.25633422
Bi 21.61587832 15.26540735 18.79673696
Te 21.43747873 17.63365621 21.02921541
Bi 23.74448533 16.47381721 22.93133586
Te 21.69403765 15.28704260 24.89254400
Te 23.57639206 16.54283639 27.96925625
Bi 21.32725644 15.23158764 29.50753616
Te 21.14396237 17.59395033 31.74414827
Bi 23.45476425 16.43568140 33.64337341
Te 21.40746757 15.24490466 35.60623377
Te 23.28433399 16.50274106 38.68373064
Bi 21.03821648 15.18781098 40.22326716
Te 20.85804621 17.55160826 42.45794011
Bi 23.16602279 16.39039420 44.36051826
Te 21.11318133 15.20524281 46.32446857
Te 23.22436296 16.11213080 49.38005102
Bi 20.98368333 14.79064592 50.92073735
Te 20.80780758 17.15986495 53.15184706
Bi 23.11250971 15.99734866 55.05693435
Te 21.05720891 14.81581029 57.01972766
Te 23.17206330 15.72096141 60.07456405
Bi 20.92792314 14.40488765 61.61492122
Te 20.74940868 16.77329443 63.84760815
Bi 23.05633163 15.61310864 65.75019954
Te 21.00786104 14.42209445 67.71072078
Te 23.05575589 15.38612153 70.78457619
Bi 20.80709538 14.07992370 72.32795960
Te 20.63130947 16.44764609 74.55934223
Bi 22.93355518 15.28363406 76.46643675
Te 20.88432280 14.08731925 78.42875057
Te 23.31690710 15.47489548 81.45933497
Bi 21.10078368 14.18511220 83.06439343
Te 20.98315077 16.58628965 85.25326065
Bi 23.23043694 15.39052211 87.21816828
Te 21.14321778 14.17366980 89.12135423
Te 25.30637585 16.56262681 91.75460534
Bi 23.20032740 15.33510755 93.61446830
Te 23.24902710 17.83330662 95.64394915
Bi 25.33730471 16.54482141 97.75062048
Te 23.15320216 15.27317838 99.43374498
Te 21.04972972 14.04206422 102.14473731
Sb 21.04158002 16.50943394 103.83392002
Te 23.18935931 15.25659103 105.72779226
Sb 21.03546739 14.00122531 107.61512517
Te 21.02812228 16.46904669 109.30675065
Te 23.17496930 15.21072413 112.03017016
Sb 23.17107800 17.68056555 113.71760979
Te 25.31580243 16.42591114 115.61929747
Sb 23.16796700 15.17397876 117.51808759
Te 23.16388730 17.64371100 119.20556646
Te 21.01370012 16.38553964 121.92348772
Sb 21.00928238 18.85507369 123.61140982
Te 23.15437962 17.60063956 125.51226875
Sb 21.00598498 16.34839001 127.41004627
Te 21.00154827 18.81791320 129.09796911
Te 21.00208108 13.83785542 131.79392983
Sb 20.99760774 16.30735726 133.48190045
Te 23.14274401 15.05294636 135.38266809
Sb 20.99428521 13.80066042 137.28032952
Te 20.98980977 16.27016105 138.96830034
Te 23.13376034 15.01017470 141.68970685
Sb 23.12927878 17.47967157 143.37768481
Te 25.27442103 16.22526405 145.27843877
Sb 23.12595312 14.97297276 147.17608323
Te 23.12147202 17.44246993 148.86406148
Te 20.97181941 16.18460386 151.58236086
Sb 20.96733821 18.65410121 153.27033832
Te 23.11248031 17.39969345 155.17109321
Sb 20.96401288 16.14740280 157.06873824
Te 20.95953182 18.61689994 158.75671671
Te 20.96012649 13.63687701 161.45271385
Sb 20.95564431 16.10637383 163.14069471
Te 23.10078744 14.85196696 165.04144465
Sb 20.95231883 13.59967538 166.93909231
Te 20.94783611 16.06917176 168.62706022
Te 23.09178822 14.80918602 171.34859090
Sb 23.08730542 17.27868285 173.03651931
Te 25.23244836 16.02427518 174.93737185
Sb 23.08400105 14.77199369 176.83488135
Te 23.07950872 17.24148174 178.52324341
Te 20.92961765 15.98352153 181.23776154
Sb 20.92554986 18.45325380 182.92680550
Te 23.07017657 17.19856648 184.82761603
Sb 20.92170782 15.94613289 186.72696518
Te 20.91790061 18.41617186 188.40090830
Te 21.30279895 15.68631154 191.58010847
Sb 21.30370793 18.15908557 193.24838492
Te 23.44287418 16.90116330 195.15515539
Sb 21.30442462 15.65450826 197.07342560
Te 21.30523646 18.12708929 198.75633804
Te 21.35245632 20.62016726 201.48501196
Bi 19.15262356 19.33993155 203.13094185
Te 19.05062716 21.75033485 205.29195133
Bi 21.33291554 20.47348657 1.64520779
Te 19.24524007 19.25581776 3.53457690
Te 21.75395146 20.68874485 6.58393700
Bi 19.51154663 19.37844259 8.13007499
Te 19.34463623 21.75022430 10.35601580
Bi 21.64431903 20.58379295 12.26576543
Te 19.59007681 19.39661604 14.22513521
Te 21.70839012 20.30581777 17.27862926
Bi 19.46563191 18.98756454 18.81903206
Te 19.28723236 21.35581331 21.05151045
Bi 21.59423880 20.19597430 22.95363108
Te 19.54379116 19.00919961 24.91483898
Te 21.42614549 20.26499374 27.99155128
Bi 19.17701000 18.95374485 29.52983121
Te 18.99371586 21.31610759 31.76644343
Bi 21.30451773 20.15783863 33.66566863
Te 19.25722100 18.96706148 35.62852886
Te 21.13408768 20.22489844 38.70602555
Bi 18.88796976 18.90996840 40.24556199
Te 18.70779990 21.27376508 42.48023515
Bi 21.01577638 20.11255126 44.38281343
Te 18.96293477 18.92739952 46.34676340
Te 21.07411658 19.83428803 49.40234594
Bi 18.83343684 18.51280312 50.94303212
Te 18.65756083 20.88202193 53.17414216
Bi 20.96226316 19.71950572 55.07922927
Te 18.90696246 18.53796721 57.04202242
Te 21.02181680 19.44311879 60.09685889
Bi 18.77767649 18.12704487 61.63721597
Te 18.59916203 20.49545131 63.86990309
Bi 20.90608518 19.33526556 65.77249457
Te 18.85761456 18.14425122 67.73301563
Te 20.90550912 19.10827860 70.80687086
Bi 18.65684863 17.80208074 72.35025417
Te 18.48106285 20.16980313 74.58163700
Bi 20.78330872 19.00579126 76.48873149
Te 18.73407637 17.80947631 78.45104536
Te 21.16666053 19.19705264 81.48162975
Bi 18.95053715 17.90726923 83.08668822
Te 18.83290427 20.30844674 85.27555533
Bi 21.08019029 19.11267899 87.24046307
Te 18.99297118 17.89582687 89.14364887
Te 23.15612906 20.28478403 91.77690002
Bi 21.05008082 19.05726451 93.63676298
Te 21.09878038 21.55546354 95.66624389
Bi 23.18705807 20.26697851 97.77291528
Te 21.00295543 18.99533543 99.45603959
Te 18.89948294 17.76422133 102.16703204
Sb 18.89133344 20.23159103 103.85621473
Te 21.03911259 18.97874807 105.75008692
Sb 18.88522073 17.72338235 107.63741978
Te 18.87787571 20.19120371 109.32904530
Te 21.02472261 18.93288132 112.05246495
Sb 21.02083138 21.40272259 113.73990456
Te 23.16555573 20.14806820 115.64159216
Sb 21.01772036 18.89613584 117.54038239
Te 21.01364070 21.36586801 119.22786114
Te 18.86345357 20.10769663 121.94578246
Sb 18.85903595 22.57723092 123.63370446
Te 21.00413303 21.32279670 125.53456352
Sb 18.85573835 20.07054703 127.43234097
Te 18.85130162 22.54007015 129.12026377
Te 18.85183445 17.56001248 131.81622430
Sb 18.84736117 20.02951429 133.50419511
Te 20.99249742 18.77510342 135.40496265
Sb 18.84403859 17.52281756 137.30262403
Te 18.83956320 19.99231812 138.99059496
Te 20.98351383 18.73233194 141.71200167
Sb 20.97903212 21.20182873 143.39997952
Te 23.12417434 19.94742123 145.30073358
Sb 20.97570654 18.69512976 147.19837800
Te 20.97122518 21.16462708 148.88635628
Te 18.82157291 19.90676088 151.60465535
Sb 18.81709169 22.37625826 153.29263297
Te 20.96223375 21.12185053 155.19338780
Sb 18.81376632 19.86955971 157.09103295
Te 18.80928523 22.33905696 158.77901139
Te 18.80987971 17.35903422 161.47500844
Sb 18.80539763 19.82853105 163.16298930
Te 20.95054082 18.57412405 165.06373926
Sb 18.80207220 17.32183246 166.96138663
Te 18.79758966 19.79132890 168.64935500
Te 20.94154168 18.53134309 171.37088567
Sb 20.93705882 21.00083991 173.05881384
Te 23.08220166 19.74643234 174.95966664
Sb 20.93375451 18.49415072 176.85717604
Te 20.92926216 20.96363876 178.54553818
Te 18.77937100 19.70567874 181.26005629
Sb 18.77530332 22.17541068 182.94910021
Te 20.91993006 20.92072354 184.84991093
Sb 18.77146119 19.66828977 186.74925984
Te 18.76765402 22.13832856 188.42320315
Te 19.15255239 19.40846887 191.60240316
Sb 19.15346118 21.88124277 193.27067982
Te 21.29262767 20.62332034 195.17745022
Sb 19.15417793 19.37666533 197.09572034
Te 19.15498987 21.84924637 198.77863292
Te 19.20220977 24.34232452 201.50730690
Bi 17.00237694 23.06208851 203.15323670
Te 16.90038071 25.47249169 205.31424617
Bi 19.18266894 24.19564355 1.66750284
Te 17.09499343 22.97797472 3.55687169
Te 19.60370504 24.41090215 6.60623196
Bi 17.36130040 23.10059969 8.15236999
Te 17.19438990 25.47238133 10.37831107
Bi 19.49407266 24.30594992 12.28806078
Te 17.43983040 23.11877306 14.24743030
Te 19.55814367 24.02797509 17.30092433
Bi 17.31538554 22.70972171 18.84132718
Te 17.13698590 25.07797030 21.07380570
Bi 19.44399265 23.91813128 22.97592650
Te 17.39354469 22.73135650 24.93713427
Te 19.27589911 23.98715107 28.01384655
Bi 17.02676344 22.67590209 29.55212644
Te 16.84346950 25.03826461 31.78873866
Bi 19.15427137 23.87999569 33.68796396
Te 17.10697464 22.68921851 35.65082399
Te 18.98384093 23.94705574 38.72832081
Bi 16.73772337 22.63212558 40.26785725
Te 16.55755341 24.99592226 42.50253054
Bi 18.86553006 23.83470836 44.40510861
Te 16.81268852 22.64955649 46.36905848
Te 18.92387014 23.55644527 49.42464114
Bi 16.68319039 22.23496027 50.96532723
Te 16.50731435 24.60417892 53.19643739
Bi 18.81201671 23.44166273 55.10152452
Te 16.75671591 22.26012408 57.06431754
Te 18.87157020 23.16527556 60.11915395
Bi 16.62742994 21.84920198 61.65951112
Te 16.44891562 24.21760844 63.89219819
Bi 18.75583871 23.05742249 65.79478959
Te 16.70736807 21.86640844 67.75531063
Te 18.75526261 22.83043583 70.82916577
Bi 16.50660203 21.52423811 72.37254913
Te 16.33081639 23.89196045 74.60393209
Bi 18.63306220 22.72794822 76.51102635
Te 16.58382979 21.53163325 78.47334019
Te 19.01641397 22.91920970 81.50392442
Bi 16.80029064 21.62942636 83.10898295
Te 16.68265764 24.03060370 85.29785023
Bi 18.92994391 22.83483605 87.26275796
Te 16.84272462 21.61798370 89.16594361
Te 21.00588276 24.00694091 91.79919490
Bi 18.89983424 22.77942156 93.65905788
Te 18.94853388 25.27762072 95.68853864
Bi 21.03681152 23.98913549 97.79520988
Te 18.85270894 22.71749247 99.47833429
Te 16.74923652 21.48637830 102.18932664
Sb 16.74108682 23.95374815 103.87850936
Te 18.88886605 22.70090521 105.77238154
Sb 16.73497428 21.44553943 107.65971448
Te 16.72762919 23.91336084 109.35134002
Te 18.87447611 22.65503825 112.07475971
Sb 18.87058490 25.12487949 113.76219939
Te 21.01530916 23.87022534 115.66388692
Sb 18.86747375 22.61829294 117.56267701
Te 18.86339409 25.08802512 119.25015602
Te 16.71320698 23.82985373 121.96807715
Sb 16.70878935 26.29938776 123.65599927
Te 18.85388655 25.04495374 125.55685825
Sb 16.70549184 23.79270422 127.45463566
Te 16.70105511 26.26222732 129.14255847
Te 16.70158788 21.28216948 131.83851894
Sb 16.69711456 23.75167131 133.52648968
Te 18.84225084 22.49726041 135.42725735
Sb 16.69379206 21.24497448 137.32491870
Te 16.68931663 23.71447513 139.01288958
Te 18.83326718 22.45448889 141.73429633
Sb 18.82878565 24.92398580 143.42227436
Te 20.97392790 23.66957824 145.32302816
Sb 18.82546001 22.41728696 147.22067260
Te 18.82097871 24.88678413 148.90865101
Te 16.67132616 23.62891794 151.62695015
Sb 16.66684519 26.09841524 153.31492765
Te 18.81198708 24.84400767 155.21568272
Sb 16.66351969 23.59171679 157.11332736
Te 16.65903869 26.06121406 158.80130609
Te 16.65963307 21.08119132 161.49730322
Sb 16.65515114 23.55068812 163.18528390
Te 18.80029432 22.29628122 165.08603388
Sb 16.65182567 21.04398961 166.98368151
Te 16.64734308 23.51348598 168.67164968
Te 18.79129507 22.25350019 171.39318031
Sb 18.78681220 24.72299705 173.08110862
Te 20.93195511 23.46858959 174.98196133
Sb 18.78350797 22.21630780 176.87947067
Te 18.77901552 24.68579587 178.56783295
Te 16.62912453 23.42783578 181.28235110
Sb 16.62505683 25.89756774 182.97139498
Te 18.76968362 24.64288051 184.87220566
Sb 16.62121468 23.39044677 186.77155462
Te 16.61740751 25.86048553 188.44549795
Te 17.00230588 23.13062599 191.62469793
Sb 17.00321471 25.60339988 193.29297470
Te 19.14238094 24.34547747 195.19974520
Sb 17.00393132 23.09882247 197.11801537
Te 17.00474325 25.57140346 198.80092779
Te 17.05196332 28.06448160 201.52960184
Bi 14.85213062 26.78424560 203.17553158
Te 14.75013417 29.19464875 205.33654123
Bi 17.03242249 27.91780059 1.68979780
Te 14.94474713 26.70013155 3.57916678
Te 17.45345863 28.13305920 6.62852711
Bi 15.21105393 26.82275664 8.17466503
Te 15.04414337 29.19453833 10.40060607
Bi 17.34382614 28.02810697 12.31035580
Te 15.28958384 26.84092995 14.26972545
Te 17.40789726 27.75013210 17.32321969
Bi 15.16513901 26.43187874 18.86362239
Te 14.98673951 28.80012753 21.09610088
Bi 17.29374610 27.64028843 22.99822153
Te 15.24329839 26.45351372 24.95942940
Te 17.12565262 27.70930800 28.03614178
Bi 14.87651699 26.39805921 29.57442169
Te 14.69322302 28.76042173 31.81103398
Bi 17.00402485 27.60215279 33.71025922
Te 14.95672821 26.41137544 35.67311933
Te 16.83359477 27.66921268 38.75061610
Bi 14.58747694 26.35428266 40.29015256
Te 14.40730712 28.71807932 42.52482585
Bi 16.71528371 27.55686537 44.42740404
Te 14.66244196 26.37171340 46.39135396
Te 16.77362367 27.27860225 49.44693646
Bi 14.53294382 25.95711717 50.98762254
Te 14.35706784 28.32633587 53.21873262
Bi 16.66177023 27.16381968 55.12381986
Te 14.60646950 25.98228097 57.08661291
Te 16.72132380 26.88743305 60.14144914
Bi 14.47718346 25.57135910 61.68180611
Te 14.29866913 27.93976517 63.91449338
Bi 16.60559218 26.77957952 65.81708480
Te 14.55712164 25.58856505 67.77760586
Te 16.60501616 26.55259308 70.85146078
Bi 14.35635546 25.24639516 72.39484413
Te 14.18057018 27.61411757 74.62622693
Bi 16.48281566 26.45010523 76.53332155
Te 14.43358305 25.25379038 78.49563506
Te 16.86616743 26.64136674 81.52621930
Bi 14.65004418 25.35158338 83.13127785
Te 14.53241116 27.75276066 85.32014506
Bi 16.77969741 26.55699296 87.28505274
Te 14.69247810 25.34014070 89.18823842
Te 18.85563599 27.72909800 91.82148962
Bi 16.74958769 26.50157842 93.68135236
Te 16.79828735 28.99977750 95.71083324
Bi 18.88656503 27.71129264 97.81750465
Te 16.70246240 26.43964946 99.50062894
Te 14.59898993 25.20853547 102.21162125
Sb 14.59084028 27.67590515 103.90080410
Te 16.73861938 26.42306216 105.79467634
Sb 14.58472763 25.16769653 107.68200918
Te 14.57738266 27.63551782 109.37363470
Te 16.72422959 26.37719535 112.09705453
Sb 16.72033842 28.84703658 113.78449416
Te 18.86506271 27.59238227 115.68618168
Sb 16.71722729 26.34044992 117.58497174
Te 16.71314754 28.81018223 119.27245068
Te 14.56296040 27.55201071 121.99037194
Sb 14.55854277 30.02154476 123.67829387
Te 16.70363995 28.76711074 125.57915299
Sb 14.55524525 27.51486114 127.47693049
Te 14.55080850 29.98438435 129.16485318
Te 14.55134129 25.00432653 131.86081363
Sb 14.54686801 27.47382835 133.54878449
Te 16.69200433 26.21941743 135.44955203
Sb 14.54354550 24.96713145 137.34721338
Te 14.53907007 27.43663197 139.03518430
Te 16.68302071 26.17664591 141.75659118
Sb 16.67853918 28.64614274 143.44456914
Te 18.82368140 27.39173520 145.34532295
Sb 16.67521349 26.13944406 147.24296738
Te 16.67073222 28.60894101 148.93094565
Te 14.52107974 27.35107504 151.64924472
Sb 14.51659842 29.82057238 153.33722230
Te 16.66174059 28.56616470 155.23797719
Sb 14.51327319 27.31387390 157.13562225
Te 14.50879214 29.78337108 158.82360088
Te 14.50938657 24.80334842 161.51959774
Sb 14.50490447 27.27284499 163.20757870
Te 16.65004777 26.01843826 165.10832874
Sb 14.50157908 24.76614672 167.00597610
Te 14.49709636 27.23564310 168.69394437
Te 16.64104849 25.97565740 171.41547510
Sb 16.63656573 28.44515401 173.10340352
Te 18.78170861 27.19074672 175.00425622
Sb 16.63326138 25.93846470 176.90176540
Te 16.62876898 28.40795294 178.59012785
Te 14.47887790 27.14999288 181.30464595
Sb 14.47481026 29.61972482 182.99368995
Te 16.61943693 28.36503756 184.89450064
Sb 14.47096808 27.11260373 186.79384949
Te 14.46716096 29.58264255 188.46779300
Te 14.85205928 26.85278298 191.64699285
Sb 14.85296820 29.32555691 193.31526959
Te 16.99213458 28.06763458 195.22204008
Sb 14.85368482 26.82097951 197.14031021
Te 14.85449695 29.29356042 198.82322273
Te 14.90171677 31.78663841 201.55189687
Bi 12.70188412 30.50640255 203.19782669
Te 12.59988778 32.91680577 205.35883620
Bi 14.88217603 31.63995755 1.71209278
Te 12.79450051 30.42228883 3.60146175
Te 15.30321221 31.85521625 6.65082215
Bi 13.06080747 30.54491379 8.19696015
Te 12.89389685 32.91669540 10.42290119
Bi 15.19357969 31.75026411 12.33265091
Te 13.13933737 30.56308713 14.29202057
Te 15.25765085 31.47228895 17.34551476
Bi 13.01489270 30.15403580 18.88591770
Te 12.83649297 32.52228450 21.11839597
Bi 15.14349972 31.36244555 23.02051668
Te 13.09305199 30.17567079 24.98172450
Te 14.97540617 31.43146506 28.05843696
Bi 12.72627059 30.12021617 29.59671692
Te 12.54297647 32.48257872 31.83332908
Bi 14.85377839 31.32430998 33.73255445
Te 12.80648192 30.13353261 35.69541449
Te 14.68334824 31.39136980 38.77291133
Bi 12.43723063 30.07643977 40.31244793
Te 12.25706066 32.44023639 42.54712109
Bi 14.56503725 31.27902237 44.44969925
Te 12.51219561 30.09387050 46.41364914
Te 14.62337719 31.00075927 49.46923179
Bi 12.38269731 29.67927435 51.00991781
Te 12.20682142 32.04849294 53.24102802
Bi 14.51152364 30.88597661 55.14611511
Te 12.45622281 29.70443799 57.10890825
Te 14.57107732 30.60958963 60.16374430
Bi 12.32693699 29.29351595 61.70410134
Te 12.14842267 31.66192246 63.93678844
Bi 14.45534569 30.50173671 65.83937983
Te 12.40687510 29.31072241 67.79990090
Te 14.45476955 30.27475012 70.87375583
Bi 12.20610902 28.96855232 72.41713925
Te 12.03032365 31.33627465 74.64852205
Bi 14.33256934 30.17226238 76.55561636
Te 12.28333673 28.97594725 78.51793003
Te 14.71592080 30.36352384 81.54851420
Bi 12.49979760 29.07374031 83.15357266
Te 12.38216449 31.47491768 85.34243988
Bi 14.62945084 30.27914997 87.30734759
Te 12.54223156 29.06229775 89.21053341
Te 16.70538954 31.45125499 91.84378435
Bi 14.59934120 30.22373547 93.70364708
Te 14.64804075 32.72193459 95.73312788
Bi 16.73631830 31.43344983 97.83979932
Te 14.55221586 30.16180636 99.52292358
Te 12.44874338 28.93069237 102.23391607
Sb 12.44059380 31.39806212 103.92309877
Te 14.58837294 30.14521920 105.81697098
Sb 12.43448111 28.88985346 107.70430404
Te 12.42713599 31.35767493 109.39592948
Te 14.57398292 30.09935232 112.11934928
Sb 14.57009170 32.56919366 113.80678881
Te 16.71481612 31.31453930 115.70847630
Sb 14.56698063 30.06260698 117.60726653
Te 14.56290103 32.53233929 119.29474542
Te 12.41271394 31.27416774 122.01266657
Sb 12.40829625 33.74370191 123.70058856
Te 14.55339342 32.48926776 125.60144767
Sb 12.40499875 31.23701811 127.49922517
Te 12.40056211 33.70654147 129.18714785
Te 12.40109473 28.72648371 131.88310829
Sb 12.39662150 31.19598555 133.57107921
Te 14.54175777 29.94157449 135.47184673
Sb 12.39329893 28.68928853 137.36950807
Te 12.38882347 31.15878905 139.05747899
Te 14.53277425 29.89880289 141.77888577
Sb 14.52829259 32.36829977 143.46686381
Te 16.67343481 31.11389216 145.36761765
Sb 14.52496689 29.86160105 147.26526207
Te 14.52048559 32.33109827 148.95324031
Te 12.37083298 31.07323213 151.67153944
Sb 12.36635202 33.54272948 153.35951703
Te 14.51149403 32.28832183 155.26027198
Sb 12.36302668 31.03603095 157.15791696
Te 12.35854563 33.50552821 158.84589548
Te 12.35914000 28.52550542 161.54189261
Sb 12.35465800 30.99500209 163.22987346
Te 14.49980123 29.74059519 165.13062334
Sb 12.35133253 28.48830379 167.02827077
Te 12.34685013 30.95780004 168.71623910
Te 14.49080196 29.69781431 171.43776994
Sb 14.48631930 32.16731106 173.12569818
Te 16.63146201 30.91290364 175.02655100
Sb 14.48301483 29.66062186 176.92406027
Te 14.47852247 32.13010978 178.61242264
Te 12.32863142 30.87214994 181.32694093
Sb 12.32456372 33.34188195 183.01598479
Te 14.46919043 32.08719458 184.91679546
Sb 12.32072153 30.83476074 186.81614433
Te 12.31691436 33.30479969 188.49008782
Te 12.70181272 30.57493990 191.66928773
Sb 12.70272172 33.04771379 193.33756440
Te 14.84188799 31.78979161 195.24433494
Sb 12.70343841 30.54313642 197.16260514
Te 12.70425040 33.01571747 198.84551775
Te 12.75147030 35.50879557 201.57419181
Bi 10.55163757 34.22855951 203.22012146
Te 10.44964115 36.63896271 205.38113092
Bi 12.73192962 35.36211463 1.73438771
Te 10.64425418 34.14444566 3.62375666
Te 13.15296559 35.57737320 6.67311710
Bi 10.91056111 34.26707086 8.21925506
Te 10.74365005 36.63885262 10.44519589
Bi 13.04333302 35.47242136 12.35494539
Te 10.98909075 34.28524443 14.31431547
Te 13.10740442 35.19444605 17.36780976
Bi 10.86464616 33.87619274 18.90821256
Te 10.68624621 36.24444157 21.14069086
Bi 12.99325317 35.08460282 23.04281134
Te 10.94280558 33.89782812 25.00401953
Te 12.82515983 35.15362180 28.08073214
Bi 10.57602413 33.84237315 29.61901204
Te 10.39272984 36.20473585 31.85562400
Bi 12.70353186 35.04646709 33.75484942
Te 10.65623545 33.85568999 35.71770964
Te 12.53310191 35.11352658 38.79520652
Bi 10.28698415 33.79859667 40.33474309
Te 10.10681426 36.16239342 42.56941606
Bi 12.41479088 35.00117955 44.47199429
Te 10.36194911 33.81602763 46.43594435
Te 12.47313075 34.72291613 49.49152690
Bi 10.23245073 33.40143126 51.03221313
Te 10.05657486 35.77065006 53.26332312
Bi 12.36127703 34.60813374 55.16841039
Te 10.30597622 33.42659510 57.13120349
Te 12.42083083 34.33174675 60.18603935
Bi 10.17669059 33.01567303 61.72639624
Te 9.99817605 35.38407957 63.95908338
Bi 12.30509920 34.22389366 65.86167495
Te 10.25662858 33.03287936 67.82219586
Te 12.30452320 33.99690697 70.89605084
Bi 10.05586261 32.69070936 72.43943411
Te 9.88007717 35.05843171 74.67081699
Bi 12.18232289 33.89441946 76.57791153
Te 10.13309032 32.69810431 78.54022499
Te 12.56567433 34.08568088 81.57080889
Bi 10.34955110 32.79589731 83.17586752
Te 10.23191787 35.19707472 85.36473467
Bi 12.47920411 34.00130698 87.32964233
Te 10.39198511 32.78445476 89.23282816
Te 14.55514307 35.17341209 91.86607899
Bi 12.44909464 33.94589244 93.72594175
Te 12.49779413 36.44409152 95.75542262
Bi 14.58607181 35.15560684 97.86209399
Te 12.40196940 33.88396364 99.54521833
Te 10.29849685 32.65284950 102.25621068
Sb 10.29034730 35.12021920 103.94539344
Te 12.43812640 33.86737621 105.83926575
Sb 10.28423450 32.61201051 107.72659856
Te 10.27688940 35.07983196 109.41822399
Te 12.42373646 33.82150938 112.14164383
Sb 12.41984517 36.29135074 113.82908328
Te 14.56456949 35.03669649 115.73077093
Sb 12.41673408 33.78476400 117.62956118
Te 12.41265439 36.25449636 119.31704000
Te 10.26246727 34.99632473 122.03496143
Sb 10.25804968 37.46585919 123.72288314
Te 12.40314681 36.21142494 125.62374232
Sb 10.25475217 34.95917535 127.52151989
Te 10.25031547 37.42869865 129.20944248
Te 10.25084824 32.44864073 131.90540315
Sb 10.24637495 34.91814262 133.59337385
Te 12.39151116 33.66373166 135.49414142
Sb 10.24305234 32.41144552 137.39180276
Te 10.23857689 34.88094615 139.07977357
Te 12.38252772 33.62095986 141.80118049
Sb 12.37804593 36.09045680 143.48915832
Te 14.52318832 34.83604924 145.38991224
Sb 12.37472029 33.58375817 147.28755668
Te 12.37023903 36.05325537 148.97553492
Te 10.22058645 34.79538913 151.69383418
Sb 10.21610538 37.26488658 153.38181157
Te 12.36124734 36.01047890 155.28256659
Sb 10.21278005 34.75818812 157.18021162
Te 10.20829905 37.22768545 158.86819007
Te 10.20889357 32.24766255 161.56418736
Sb 10.20441141 34.71715906 163.25216813
Te 12.34955469 33.46275232 165.15291809
Sb 10.20108611 32.21046070 167.05056569
Te 10.19660349 34.67995708 168.73853382
Te 12.34055536 33.41997135 171.46006467
Sb 12.33607265 35.88946797 173.14799307
Te 14.48121563 34.63506072 175.04884578
Sb 12.33276826 33.38277888 176.94635501
Te 12.32827598 35.85226692 178.63471730
Te 10.17838466 34.59430700 181.34923584
Sb 10.17431717 37.06403893 183.03827978
Te 12.31894392 35.80935173 184.93909035
Sb 10.17047503 34.55691796 186.83843926
Te 10.16666770 37.02695686 188.51238255
Te 10.55156628 34.29709687 191.69158262
Sb 10.55247520 36.76987074 193.35985939
Te 12.69164146 35.51194851 195.26662987
Sb 10.55319175 34.26529345 197.18490013
Te 10.55400390 36.73787450 198.86781247
Te 10.60122367 39.23095244 201.59648652
Bi 8.40139105 37.95071662 203.24241637
Te 8.29939441 40.36112023 205.40342560
Bi 10.58168305 39.08427168 1.75668218
Te 8.49400755 37.86660325 3.64605136
Te 11.00271906 39.29952990 6.69541168
Bi 8.76031428 37.98922778 8.24154990
Te 8.59340344 40.36100995 10.46749055
Bi 10.89308634 39.19457869 12.37724014
Te 8.83884408 38.00740179 14.33661025
Te 10.95715786 38.91660289 17.39010439
Bi 8.71439953 37.59834968 18.93050718
Te 8.53599965 39.96659856 21.16298542
Bi 10.84300660 38.80675991 23.06510627
Te 8.79255880 37.61998544 25.02631435
Te 10.67491329 38.87577880 28.10302682
Bi 8.42577766 37.56453020 29.64130673
Te 8.24248335 39.92689277 31.87791868
Bi 10.55328523 38.76862418 33.77714425
Te 8.50598856 37.57784730 35.74000441
Te 10.38285536 38.83568350 38.81750131
Bi 8.13673767 37.52075344 40.35703793
Te 7.95656763 39.88455056 42.59171087
Bi 10.26454426 38.72333666 44.49428928
Te 8.21170264 37.53818489 46.45823936
Te 10.32288410 38.44507286 49.51382180
Bi 8.08220416 37.12358815 51.05450812
Te 7.90632836 39.49280728 53.28561780
Bi 10.21103031 38.33029080 55.19070529
Te 8.15572963 37.14875237 57.15349843
Te 10.27058428 38.05390374 60.20833420
Bi 8.02644405 36.73782994 61.74869138
Te 7.84792957 39.10623681 63.98137827
Bi 10.15485274 37.94605106 65.88396975
Te 8.10638213 36.75503649 67.84449075
Te 10.15427691 37.71906396 70.91834555
Bi 7.90561630 36.41286641 72.46172902
Te 7.72983064 38.78058883 74.69311195
Bi 10.03207643 37.61657665 76.60020618
Te 7.98284385 36.42026168 78.56251979
Te 10.41542766 37.80783795 81.59310380
Bi 8.19930442 36.51805436 83.19816231
Te 8.08167151 38.91923186 85.38702944
Bi 10.32895777 37.72346412 87.35193714
Te 8.24173841 36.50661214 89.25512285
Te 12.40489653 38.89556914 91.88837361
Bi 10.29884795 37.66804975 93.74823630
Te 10.34754754 40.16624884 95.77771710
Bi 12.43582507 38.87776394 97.88438844
Te 10.25172281 37.60612074 99.56751293
Te 8.14825027 36.37500649 102.27850543
Sb 8.14010070 38.84237629 103.96768813
Te 10.28787978 37.58953328 105.86156040
Sb 8.13398792 36.33416767 107.74889315
Te 8.12664271 38.80198916 109.44051856
Te 10.27348984 37.54366642 112.16393840
Sb 10.26959853 40.01350791 113.85137779
Te 12.41432290 38.75885364 115.75306539
Sb 10.26648748 37.50692115 117.65185588
Te 10.26240766 39.97665358 119.33933451
Te 8.11222060 38.71848181 122.05725587
Sb 8.10780292 41.18801614 123.74517766
Te 10.25290020 39.93358198 125.64603683
Sb 8.10450550 38.68133238 127.54381439
Te 8.10006860 41.15085579 129.23173701
Te 8.10060168 36.17079789 131.92769774
Sb 8.09612832 38.64029975 133.61566854
Te 10.24126451 37.38588871 135.51643606
Sb 8.09280576 36.13360271 137.41409746
Te 8.08833013 38.60310334 139.10206837
Te 10.23228099 37.34311694 141.82347499
Sb 10.22779919 39.81261406 143.51145283
Te 12.37294155 38.55820649 145.41220678
Sb 10.22447370 37.30591538 147.30985120
Te 10.21999235 39.77541250 148.99782932
Te 8.07033989 38.51754637 151.71612882
Sb 8.06585877 40.98704394 153.40410629
Te 10.21100087 39.73263609 155.30486121
Sb 8.06253362 38.48034529 157.20250625
Te 8.05805238 40.94984263 158.89048475
Te 8.05864692 35.96981952 161.58648208
Sb 8.05416487 38.43931638 163.27446277
Te 10.19930815 37.18490937 165.17521263
Sb 8.05083955 35.93261772 167.07286028
Te 8.04635673 38.40211405 168.76082835
Te 10.19030889 37.14212838 171.48235933
Sb 10.18582606 39.61162521 173.17028762
Te 12.33096893 38.35721768 175.07114034
Sb 10.18252183 37.10493602 176.96864970
Te 10.17802930 39.57442409 178.65701182
Te 8.02813835 38.31646393 181.37153059
Sb 8.02407033 40.78619630 183.06057434
Te 10.16869717 39.53150896 184.96138494
Sb 8.02022827 38.27907519 186.86073408
Te 8.01642101 40.74911444 188.53467727
Te 8.40131961 38.01925379 191.71387739
Sb 8.40222855 40.49202773 193.38215405
Te 10.54139481 39.23410555 195.28892455
Sb 8.40294531 37.98745043 197.20719489
Te 8.40375746 40.46003148 198.89010715
Te 8.45097716 42.95310981 201.61878103
Bi 6.25114431 41.67287380 203.26471079
Te 6.14914752 44.08327729 205.42572000
Bi 8.43143618 42.80642923 1.77897679
Te 6.34376084 41.58876016 3.66834575
Te 8.85247235 43.02168717 6.71770599
Bi 6.61006757 41.71138481 8.26384406
Te 6.44315646 44.08316702 10.48978472
Bi 8.74283934 42.91673603 12.39953463
Te 6.68859711 41.72955914 14.35890470
Te 8.80691116 42.63875962 17.41239890
Bi 6.56415276 41.32050656 18.95280173
Te 6.38575282 43.68875588 21.18527976
Bi 8.69275952 42.52891695 23.08740070
Te 6.64231171 41.34214273 25.04860896
Te 8.52466667 42.59793563 28.12532132
Bi 6.27553100 41.28668707 29.66360146
Te 6.09223645 43.64905002 31.90021298
Bi 8.40303851 42.49078155 33.79943855
Te 6.35574206 41.30000467 35.76229883
Te 8.23260864 42.55784013 38.83979595
Bi 5.98649111 41.24291039 40.37933272
Te 5.80632080 43.60670772 42.61400516
Bi 8.11429738 42.44549392 44.51658377
Te 6.06145562 41.26034264 46.48053397
Te 8.17263731 42.16722985 49.53611628
Bi 5.93195769 40.84574521 51.07680284
Te 5.75608173 43.21496438 53.30791232
Bi 8.06078392 42.05244812 55.21299986
Te 6.00548286 40.87090997 57.17579294
Te 8.12033772 41.77606061 60.23062873
Bi 5.87619751 40.45998714 61.77098599
Te 5.69768307 42.82839402 64.00367277
Bi 8.00460598 41.66820822 65.90626447
Te 5.95613537 40.47719390 67.86678537
Te 8.00403034 41.44122101 70.94064030
Bi 5.75536990 40.13502350 72.48402370
Te 5.57958421 42.50274583 74.71540634
Bi 7.88182987 41.33873381 76.62250105
Te 5.83259720 40.14241895 78.58481452
Te 8.26518098 41.52999512 81.61539829
Bi 6.04905803 40.24021150 83.22045722
Te 5.93142462 42.64138912 85.40932370
Bi 8.17871084 41.44562150 87.37423138
Te 6.09149175 40.22876935 89.27741732
Te 10.25464984 42.61772627 91.91066821
Bi 8.14860136 41.39020692 93.77053099
Te 8.19730077 43.88840627 95.80001158
Bi 10.28557843 42.59992123 97.90668281
Te 8.10147600 41.32827809 99.58980734
Te 5.99800357 40.09716374 102.30079988
Sb 5.98985393 42.56453364 103.98998246
Te 8.13763319 41.31169052 105.88385499
Sb 5.98374130 40.05632490 107.77118769
Te 5.97639598 42.52414647 109.46281298
Te 8.12324312 41.26582372 112.18623292
Sb 8.11935174 43.73566527 113.87367219
Te 10.26407620 42.48101086 115.77535982
Sb 8.11624070 41.22907844 117.67415034
Te 8.11216098 43.69881084 119.36162874
Te 5.96197400 42.44063898 122.07955030
Sb 5.95755598 44.91017352 123.76747204
Te 8.10265337 43.65573938 125.66833119
Sb 5.95425883 42.40348969 127.56610891
Te 5.94982172 44.87301321 129.25403129
Te 5.95035502 39.89295503 131.94999260
Sb 5.94588157 42.36245702 133.63796317
Te 8.09101781 41.10804577 135.53873074
Sb 5.94255899 39.85575980 137.43639213
Te 5.93808342 42.32526043 139.12436289
Te 8.08203433 41.06527406 141.84576938
Sb 8.07755250 43.53477111 143.53374723
Te 10.22269486 42.28036361 145.43450122
Sb 8.07422699 41.02807258 147.33214583
Te 8.06974555 43.49756993 149.02012368
Te 5.92009321 42.23970358 151.73842336
Sb 5.91561208 44.70920116 153.42640074
Te 8.06075418 43.45479328 155.32715566
Sb 5.91228679 42.20250250 157.22480071
Te 5.90780560 44.67199981 158.91277904
Te 5.90840020 39.69197674 161.60877654
Sb 5.90391816 42.16147359 163.29675734
Te 8.04906141 40.90706664 165.19750725
Sb 5.90059277 39.65477499 167.09515485
Te 5.89611010 42.12427135 168.78312289
Te 8.04006230 40.86428542 171.50465395
Sb 8.03557937 43.33378227 173.19258189
Te 10.18072220 42.07937494 175.09343481
Sb 8.03227510 40.82709299 176.99094429
Te 8.02778263 43.29658149 178.67930642
Te 5.87789152 42.03862092 181.39382521
Sb 5.87382366 44.50835340 183.08286867
Te 8.01845059 43.25366634 184.98367950
Sb 5.86998165 42.00123250 186.88302866
Te 5.86617422 44.47127200 188.55697158
Te 6.25107319 41.74141074 191.73617205
Sb 6.25198226 44.21418487 193.40444827
Te 8.39114805 42.95626268 195.31121921
Sb 6.25269850 41.70960741 197.22948948
Te 6.25351077 44.18218869 198.91240159
Te 6.30073039 46.67526667 201.64107521
Bi 4.10089749 45.39503101 203.28700493
Te 3.99890061 47.80543463 205.44801413
Bi 6.28118928 46.52858636 1.80127073
Te 4.19351405 45.31091791 3.69064016
Te 6.70222518 46.74384399 6.74000007
Bi 4.45982075 45.43354203 8.28613830
Te 4.29290959 47.80532443 10.51207864
Bi 6.59259243 46.63889325 12.42182856
Te 4.53835005 45.45171671 14.38119897
Te 6.65666413 46.36091645 17.43469297
Bi 4.41390598 45.04266363 18.97509619
Te 4.23550594 47.41091317 21.20757359
Bi 6.54251266 46.25107442 23.10969471
Te 4.49206493 45.06430023 25.07090308
Te 6.37441999 46.32009240 28.14761538
Bi 4.12528425 45.00884408 29.68589567
Te 3.94198970 47.37120732 31.92250678
Bi 6.25279173 46.21293906 33.82173252
Te 4.20549495 45.02216230 35.78459316
Te 6.08236177 46.27999725 38.86208998
Bi 3.83624434 44.96506737 40.40162687
Te 3.65607365 47.32886499 42.63629903
Bi 5.96405041 46.16765145 44.53887750
Te 3.91120885 44.98250002 46.50282810
Te 6.02239066 45.88938664 49.55841043
Bi 3.78171088 44.56790221 51.09909729
Te 3.60583469 46.93712192 53.33020633
Bi 5.91053679 45.77460560 55.23529398
Te 3.85523575 44.59306756 57.19808706
Te 5.97009106 45.49821751 60.25292306
Bi 3.72595084 44.18214429 61.79328052
Te 3.54743639 46.55055124 64.02596672
Bi 5.85435911 45.39036580 65.92855904
Te 3.80588835 44.19935156 67.88907975
Te 5.85378359 45.16337788 70.96293468
Bi 3.60512313 43.85718039 72.50631844
Te 3.42933735 46.22490347 74.73770048
Bi 5.73158308 45.06089123 76.64479514
Te 3.68235046 43.86457644 78.60710885
Te 6.11493433 45.25215235 81.63769267
Bi 3.89881111 43.96236875 83.24275149
Te 3.78117797 46.36354654 85.43161794
Bi 6.02846417 45.16777873 87.39652583
Te 3.94124485 43.95092676 89.29971174
Te 8.10440300 46.33988363 91.93296244
Bi 5.99835449 45.11236436 93.79282541
Te 6.04705406 47.61056374 95.82230589
Bi 8.13533154 46.32207849 97.92897743
Te 5.95122910 45.05043532 99.61210182
Te 3.84775672 43.81932101 102.32309425
Sb 3.83960705 46.28669101 104.01227674
Te 5.98738636 45.03384787 105.90614928
Sb 3.83349444 43.77848217 107.79348210
Te 3.82614910 46.24630385 109.48510730
Te 5.97299635 44.98798092 112.20852725
Sb 5.96910482 47.45782252 113.89596655
Te 8.11382929 46.20316823 115.79765408
Sb 5.96599401 44.95123561 117.69644456
Te 5.96191413 47.42096821 119.38392306
Te 3.81172707 46.16279619 122.10184463
Sb 3.80730911 48.63233090 123.78976611
Te 5.95240654 47.37789667 125.69062541
Sb 3.80401195 46.12564697 127.58840312
Te 3.79957485 48.59517059 129.27632540
Te 3.80010827 43.61511219 131.97228707
Sb 3.79563475 46.08461431 133.66025759
Te 5.94077098 44.83020313 135.56102525
Sb 3.79231229 43.57791717 137.45868664
Te 3.78783669 46.04741791 139.14665736
Te 5.93178758 44.78743118 141.86806388
Sb 5.92730570 47.25692850 143.55604156
Te 8.07244805 46.00252089 145.45679553
Sb 5.92398013 44.75022989 147.35444018
Te 5.91949862 47.21972722 149.04241794
Te 3.76984646 45.96186086 151.76071782
Sb 3.76536521 48.43135852 153.44869495
Te 5.91050717 47.17695057 155.34945002
Sb 3.76203996 45.92465959 157.24709522
Te 3.75755872 48.39415732 158.93507328
Te 3.75815354 43.41413392 161.63107124
Sb 3.75367143 45.88363075 163.31905180
Te 5.89881467 44.62922384 165.21980182
Sb 3.75034616 43.37693218 167.11744925
Te 3.74586324 45.84642856 168.80541711
Te 5.88981553 44.58644265 171.52694838
Sb 5.88533252 47.05593951 173.21487639
Te 8.03047547 45.80153206 175.11572911
Sb 5.88202839 44.54925032 177.01323876
Te 5.87753571 47.01873873 178.70160052
Te 3.72764458 45.76077826 181.41611949
Sb 3.72357657 48.23051084 183.10516295
Te 5.86820366 46.97582371 185.00597359
Sb 3.71973481 45.72338983 186.90532292
Te 3.71592737 48.19342930 188.57926568
Te 4.10082630 45.46356778 191.75846646
Sb 4.10173532 47.93634204 193.42674260
Te 6.24090134 46.67841957 195.33351350
Sb 4.10245174 45.43176476 197.25178400
Te 4.10326379 47.90434627 198.93469577
Te 4.15048342 50.39742419 201.66336934
Bi 1.95065056 49.11718838 203.30929887
Te 1.84865357 51.52759195 205.47030801
Bi 4.13094236 50.25074381 1.82356460
Te 2.04326712 49.03307534 3.71293412
Te 4.55197821 50.46600143 6.76229402
Bi 2.30957358 49.15569911 8.30843207
Te 2.14266244 51.52748150 10.53437236
Bi 4.44234522 50.36105076 12.44412255
Te 2.38810297 49.17387407 14.40349288
Te 4.50641715 50.08307370 17.45698659
Bi 2.26365898 48.76482082 18.99738967
Te 2.08525897 51.13307034 21.22986709
Bi 4.39226548 49.97323190 23.13198857
Te 2.34181763 48.78645780 25.09319678
Te 4.22417285 50.04224979 28.16990902
Bi 1.97503732 48.73100133 29.70818939
Te 1.79174249 51.09336494 31.94480029
Bi 4.10254454 49.93509648 33.84402614
Te 2.05524792 48.74432011 35.80688677
Te 3.93211481 50.00215452 38.88438352
Bi 1.68599737 48.68722475 40.42392041
Te 1.50582670 51.05102225 42.65859266
Bi 3.81380328 49.88980895 44.56117171
Te 1.76096168 48.70465759 46.52512194
Te 3.87214379 49.61154390 49.58070426
Bi 1.63146397 48.29005939 51.12139095
Te 1.45558778 50.65927921 53.35249986
Bi 3.76028983 49.49676316 55.25758798
Te 1.70498878 48.31522509 57.22038118
Te 3.81984390 49.22037468 60.27521679
Bi 1.57570386 47.90430118 61.81557448
Te 1.39718954 50.27270874 64.04826050
Bi 3.70411221 49.11252330 65.95085288
Te 1.65564132 47.92150922 67.91137364
Te 3.70353677 48.88553507 70.98522859
Bi 1.45487630 47.57933767 72.52861247
Te 1.27909042 49.94706078 74.75999456
Bi 3.58133626 48.78304887 76.66708930
Te 1.53210371 47.58673393 78.62940296
Te 3.96468730 48.97430956 81.65998684
Bi 1.74856431 47.68452613 83.26504569
Te 1.63093102 50.08570388 85.45391201
Bi 3.87821720 48.88993624 87.41882005
Te 1.79099807 47.67308420 89.32200576
Te 5.95415591 50.06204125 91.95525660
Bi 3.84810770 48.83452173 93.81511950
Te 3.89680718 51.33272108 95.84460011
Bi 5.98508478 50.04423608 97.95127163
Te 3.80098215 48.77259285 99.63439601
Te 1.69750988 47.54147823 102.34538857
Sb 1.68936029 50.00884833 104.03457088
Te 3.83713955 48.75600526 105.92844343
Sb 1.68324748 47.50063947 107.81577640
Te 1.67590208 49.96846142 109.50740135
Te 3.82274956 48.71013829 112.23082136
Sb 3.81885790 51.17997999 113.91826063
Te 5.96358246 49.92532563 115.81994825
Sb 3.81574718 48.67339300 117.71873884
Te 3.81166711 51.14312574 119.40621718
Te 1.66148024 49.88495367 122.12413887
Sb 31.76051637 0.24428750 123.49993739
Te 3.80215974 51.10005406 125.71291948
Sb 1.65376501 49.84780444 127.61069721
Te 31.75278201 0.20712714 128.98649652
Te 1.64986141 47.33726937 131.99458160
Sb 1.64538801 49.80677172 133.68255172
Te 3.79052411 48.55236037 135.58331946
Sb 1.64206550 47.30007452 137.48098110
Te 1.63758982 49.76957543 139.16895154
Te 3.78154082 48.50958860 141.89035821
Sb 3.77705871 50.97908595 143.57833577
Te 5.92220116 49.72467829 145.47908962
Sb 3.77373328 48.47238731 147.37673429
Te 3.76925164 50.94188462 149.06471200
Te 1.61959949 49.68401817 151.78301207
Sb 31.71857221 0.04331508 153.15886631
Te 3.76026038 50.89910793 155.37174424
Sb 1.61179305 49.64681708 157.26938932
Te 1.60731173 52.11631466 158.95736740
Te 1.60790692 47.13629122 161.65336568
Sb 1.60342446 49.60578806 163.34134616
Te 3.74856783 48.35138111 165.24209620
Sb 1.60009926 47.09908929 167.13974354
Te 1.59561629 49.56858606 168.82771151
Te 3.73956869 48.30859988 171.54924269
Sb 3.73508554 50.77809701 173.23717051
Te 5.88022847 49.52368942 175.13802327
Sb 3.73178147 48.27140779 177.03553291
Te 3.72728877 50.74089611 178.72389464
Te 1.57739785 49.48293566 181.43841369
Sb 1.57332963 51.95266816 183.12745682
Te 3.71795661 50.69798113 185.02826754
Sb 1.56948791 49.44554735 186.92761715
Te 1.56568017 51.91558719 188.60155952
Te 1.95057930 49.18572483 191.78076075
Sb 1.95148837 51.65849942 193.44903654
Te 4.09065426 50.40057705 195.35580741
Sb 1.95220483 49.15392219 197.27407801
Te 1.95301676 51.62650371 198.95698956
Te 36.26746588 1.93270421 201.33804634
Bi 34.17067483 0.71011453 203.22063817
Te 34.25939907 3.23158184 205.21607662
Bi 36.34223258 1.83819655 1.76307546
Te 34.13422593 0.55367067 3.38604348
Te 36.55761325 1.93151158 6.41119457
Bi 34.50493859 0.74006822 8.37184776
Te 34.65242702 3.29689779 10.30460483
Bi 36.63232578 1.94778182 12.50967473
Te 34.39089990 0.63213804 14.05448674
Te 36.50220178 1.53551711 17.10924031
Bi 34.44862331 0.35054104 19.07238129
Te 34.60575633 2.91108858 20.99796274
Bi 36.57645540 1.55305995 23.20997074
Te 34.33077907 0.23805349 24.75015236
Te 36.20735219 1.49585771 27.82747664
Bi 34.16003539 0.30505921 29.79028806
Te 34.32058025 2.86894715 31.71184573
Bi 36.28752730 1.50915470 33.92619535
Te 34.03836247 0.19788058 35.46442049
Te 35.92018120 1.45353937 38.54116340
Bi 33.87017823 0.26669054 40.50293427
Te 34.02750645 2.82929130 42.42691242
Bi 35.99866263 1.47489875 44.63773520
Te 33.75515273 0.15680348 46.17715316
Te 35.87108717 1.06176314 49.23188584
Bi 3.71230332 51.99046943 51.50691055
Te 33.97022881 2.43989926 53.12213216
Bi 35.94457923 1.08691919 55.33093125
Te 3.60044343 51.87570220 57.18381551
Te 35.81396295 0.67477139 59.92768353
Bi 3.65826346 51.59782642 62.20289103
Te 33.91903744 2.04773637 63.81614938
Bi 35.88957950 0.69049737 66.02774620
Te 3.53903590 51.48909008 67.88085571
Te 35.69185191 0.34969019 70.64212476
Bi 3.54182146 51.26359364 72.91269151
Te 33.79837221 1.71243159 74.52873781
Bi 35.77713438 0.36028906 76.73518829
Te 3.42739067 51.16476713 78.59138839
Te 36.03834566 0.48426276 81.32452223
Bi 3.85606911 51.38249353 83.54312278
Te 34.06040427 1.80092779 85.21035907
Bi 36.10172341 0.48506577 87.35837066
Te 3.78856620 51.30916277 89.28847195
Te 38.29036256 1.72323765 91.72410300
Bi 36.10007509 0.44814401 93.38459064
Te 36.04161698 2.88379042 95.52363358
Bi 38.24188134 1.66057622 97.53442279
Te 36.13028617 0.42991711 99.38162670
Te 3.82937757 51.25496576 102.35522577
Sb 33.93207815 1.61644205 103.72679744
Te 36.07462882 0.36049527 105.63470029
Sb 3.82813868 51.22148772 107.85422780
Te 33.92999090 1.58247050 109.22629464
Te 36.07107664 0.32084204 111.94559252
Sb 36.06600467 2.78999514 113.63411721
Te 38.21156504 1.53583510 115.53393108
Sb 36.06246630 0.28318604 117.43043939
Te 36.05758417 2.75244929 119.11891266
Te 33.90846445 1.49488922 121.83759937
Sb 33.90392042 3.96435028 123.52563150
Te 36.04910635 2.70996872 125.42628349
Sb 33.90056713 1.45763710 127.32379865
Te 33.89604230 3.92710910 129.01183066
Te 3.79324290 51.05732104 132.02000512
Sb 33.89220808 1.41661354 133.39586624
Te 36.03735523 0.16220872 135.29660916
Sb 3.78542612 51.02011404 137.50636314
Te 33.88439359 1.37940810 138.88222383
Te 36.02835411 0.11942682 141.60363604
Sb 36.02387378 2.58892512 143.29161221
Te 38.16901502 1.33451671 145.19236879
Sb 36.02054927 0.08222648 147.09001658
Te 36.01606857 2.55172470 148.77799303
Te 33.86641475 1.29385716 151.49629187
Sb 33.86193378 3.76335510 153.18426841
Te 36.00707546 2.50894710 155.08502418
Sb 33.85860887 1.25665645 156.98267062
Te 33.85412796 3.72615440 158.67064824
Te 3.75126608 50.85632973 161.67876766
Sb 33.85024038 1.21562758 163.05462235
Te 5.89192650 52.07141973 165.26749807
Sb 3.74346131 50.81912955 167.16515342
Te 33.84243593 1.17842766 168.54099387
Te 5.88293980 52.02864406 171.57466556
Sb 35.98191482 2.38794228 172.95047022
Te 38.12705509 1.13353271 174.85133166
Sb 5.87511534 51.99143634 177.06090870
Te 35.97409809 2.35073705 178.43710301
Te 33.82468147 1.09301146 181.15152623
Sb 33.81978828 3.56225300 182.84140125
Te 35.96543828 2.30813875 184.74122253
Sb 33.81696528 1.05586911 186.64009860
Te 33.81182803 3.52518614 188.31532191
Te 34.21010228 0.80276625 191.50227570
Sb 34.20028208 3.26937080 193.18326349
Te 36.35141176 2.01837386 195.07956229
Sb 34.19293048 0.76045697 196.95727022
Te 34.18340648 3.22703175 198.64711248
Te 34.11721914 5.65486179 201.36034016
Bi 32.02042780 4.43227213 203.24293164
Te 32.10915228 6.95373898 205.23837073
Bi 34.19198580 5.56035397 1.78536984
Te 31.98397887 4.27582817 3.40833754
Te 34.40736580 5.65366931 6.43348831
Bi 32.35469156 4.46222553 8.39414131
Te 32.50218006 7.01905492 10.32689866
Bi 34.48207883 5.66993909 12.53196844
Te 32.24065286 4.35429495 14.07678045
Te 34.35195438 5.25767485 17.13153390
Bi 32.29837605 4.07269865 19.09467493
Te 32.45550928 6.63324592 21.02025658
Bi 34.42620841 5.27521708 23.23226440
Te 32.18053214 3.96021026 24.77244606
Te 34.05710508 5.21801531 27.84977005
Bi 32.00978823 4.02721666 29.81258131
Te 32.17033327 6.59110438 31.73413943
Bi 34.13728023 5.23131196 33.94848928
Te 31.88811535 3.92003767 35.48671395
Te 33.76993405 5.17569715 38.56345672
Bi 31.71993099 3.98884820 40.52522716
Te 31.87725957 6.55144857 42.44920608
Bi 33.84841561 5.19705605 44.66002897
Te 31.60490548 3.87896055 46.19944677
Te 33.72084008 4.78392086 49.25417918
Bi 31.66551021 3.60242605 51.21708094
Te 31.81998191 6.16205658 53.14442572
Bi 33.79433220 4.80907649 55.35322495
Te 31.55365044 3.48765853 56.89398612
Te 33.66371558 4.39692938 59.94997702
Bi 31.61147022 3.20978315 61.91306171
Te 31.76879036 5.76989360 63.83844318
Bi 33.73933251 4.41265473 66.05004003
Te 31.49224282 3.10104658 67.59102671
Te 33.54160482 4.07184772 70.66441852
Bi 31.49502836 2.87555028 72.62286245
Te 31.64812532 5.43458899 74.55103164
Bi 33.62688725 4.08244631 76.75748209
Te 31.38059764 2.77672365 78.30155937
Te 33.88809847 4.20642021 81.34681614
Bi 31.80927596 2.99445007 83.25329396
Te 31.91015748 5.52308517 85.23265310
Bi 33.95147661 4.20722323 87.38066468
Te 31.74177332 2.92111933 88.99864308
Te 36.14011562 5.44539498 91.74639719
Bi 33.94982790 4.17030151 93.40688456
Te 33.89137019 6.60594767 95.54592778
Bi 36.09163447 5.38273354 97.55671710
Te 33.98003914 4.15207454 99.40392094
Te 31.78258453 2.86692247 102.06539705
Sb 31.78183114 5.33859941 103.74909181
Te 33.92438204 4.08265268 105.65699443
Sb 31.78134582 2.83344441 107.56439911
Te 31.77974423 5.30462783 109.24858879
Te 33.92082962 4.04299938 111.96788643
Sb 33.91575790 6.51215257 113.65641164
Te 36.06131804 5.25799228 115.55622523
Sb 33.91221925 4.00534352 117.45273344
Te 33.90733735 6.47460663 119.14120686
Te 31.75821753 5.21704667 121.85989338
Sb 31.75367366 7.68650761 123.54792582
Te 33.89885950 6.43212601 125.44857768
Sb 31.75032021 5.17979456 127.34609290
Te 31.74579548 7.64926647 129.03412487
Te 31.74644996 2.66927763 131.73017641
Sb 31.74196122 5.13877096 133.41816029
Te 33.88710820 3.88436616 135.31890328
Sb 31.73863299 2.63207086 137.21653442
Te 31.73414674 5.10156548 138.90451794
Te 33.87810720 3.84158426 141.62593020
Sb 33.87362688 6.31108254 143.31390641
Te 36.01876810 5.05667433 145.21466302
Sb 33.87030236 3.80438386 147.11231086
Te 33.86582180 6.27388192 148.80028742
Te 31.71616787 5.01601478 151.51858594
Sb 31.71168685 7.48551236 153.20656288
Te 33.85682846 6.23110438 155.10731836
Sb 31.70836197 4.97881376 157.00496498
Te 31.70388107 7.44831169 158.69294262
Te 31.70447305 2.46828635 161.38893885
Sb 31.69999339 4.93778496 163.07691638
Te 33.84513347 3.68337630 164.97766931
Sb 31.69666828 2.43108602 166.87532457
Te 31.69218903 4.90058501 168.56328800
Te 33.83614675 3.64060069 171.28483672
Sb 33.83166785 6.11009980 172.97276449
Te 35.97680811 4.85569008 174.87362560
Sb 33.82832243 3.60339292 176.77107996
Te 33.82385116 6.07289441 178.45939717
Te 31.67443447 4.81516899 181.17382009
Sb 31.66954127 7.28441050 182.86369539
Te 33.81519128 6.03029606 184.76351653
Sb 31.66671830 4.77802661 186.66239243
Te 31.66158119 7.24734345 188.33761609
Te 32.05985509 4.52492386 191.52456957
Sb 32.05003513 6.99152839 193.20555739
Te 34.20116470 5.74053134 195.10185632
Sb 32.04268348 4.48261446 196.97956411
Te 32.03315956 6.94918919 198.66940665
Te 31.96697200 9.37701916 201.38263444
Bi 29.87018090 8.15442944 203.26522606
Te 29.95890533 10.67589641 205.26066492
Bi 32.04173870 9.28251121 1.80766389
Te 29.83373220 7.99798533 3.43063155
Te 32.25711905 9.37582671 6.45578254
Bi 30.20444453 8.18438313 8.41643546
Te 30.35193332 10.74121235 10.34919303
Bi 32.33183216 9.39209615 12.55426260
Te 30.09040619 8.07645221 14.09907460
Te 32.20170756 8.97983250 17.15382825
Bi 30.14812905 7.79485597 19.11696887
Te 30.30526240 10.35540301 21.04255071
Bi 32.27596161 8.99737427 23.25455837
Te 30.03028535 7.68236760 24.79474005
Te 31.90685799 8.94017301 27.87206402
Bi 29.85954116 7.74937410 29.83487521
Te 30.02008643 10.31326177 31.75643356
Bi 31.98703343 8.95346895 33.97078315
Te 29.73786852 7.64219467 35.50900784
Te 31.61968690 8.89785475 38.58575064
Bi 29.56968396 7.71100544 40.54752104
Te 29.72701295 10.27360569 42.47150019
Bi 31.69816867 8.91921318 44.68232303
Te 29.45465865 7.60111776 46.22174075
Te 31.57059310 8.50607847 49.27647290
Bi 29.51526319 7.32458357 51.23937488
Te 29.66973504 9.88421403 53.16671976
Bi 31.64408534 8.53123357 55.37551874
Te 29.40340367 7.20981580 56.91627979
Te 31.51346861 8.11908677 59.97227089
Bi 29.46122336 6.93194060 61.93535560
Te 29.61854372 9.49205096 63.86073709
Bi 31.58908566 8.13481185 66.07233399
Te 29.34199584 6.82320379 67.61332040
Te 31.39135765 7.79400505 70.68671249
Bi 29.34478121 6.59770763 72.64515640
Te 29.49787841 9.15674618 74.57332569
Bi 31.47664034 7.80460369 76.77977595
Te 29.23035072 6.49888094 78.32385334
Te 31.73785162 7.92857763 81.36911021
Bi 29.65902908 6.71660751 83.27558805
Te 29.75991054 9.24524250 85.25494741
Bi 31.80122963 7.92938059 87.40295896
Te 29.59152650 6.64327671 89.02093732
Te 33.98986891 9.16755235 91.76869151
Bi 31.79958094 7.89245888 93.42917890
Te 31.74112344 10.32810500 95.56822216
Bi 33.94138757 9.10489083 97.57901138
Te 31.82979232 7.87423175 99.42621534
Te 29.63233768 6.58907983 102.08769130
Sb 29.63158437 9.06075678 103.77138614
Te 31.77413507 7.80480987 105.67928888
Sb 29.63109897 6.55560179 107.58669333
Te 29.62949724 9.02678496 109.27088320
Te 31.77058283 7.76515689 111.99018083
Sb 31.76551109 10.23430979 113.67870585
Te 33.91107134 8.98014967 115.57851962
Sb 31.76197237 7.72750083 117.47502776
Te 31.75709057 10.19676376 119.16350119
Te 29.60797069 8.93920411 121.88218766
Sb 29.60342667 11.40866495 123.57022035
Te 31.74861265 10.15428332 125.47087200
Sb 29.60007338 8.90195182 127.36838709
Te 29.59554871 11.37142366 129.05641939
Te 29.59620295 6.39143501 131.75247064
Sb 29.59171428 8.86092827 133.44045449
Te 31.73686144 7.60652359 135.34119746
Sb 29.58838618 6.35422813 137.23882861
Te 29.58390002 8.82372281 138.92681226
Te 31.72786026 7.56374164 141.64822447
Sb 31.72338004 10.03323991 143.33620088
Te 33.86852117 8.77883152 145.23695737
Sb 31.72005545 7.52654116 147.13460527
Te 31.71557496 9.99603915 148.82258199
Te 29.56592094 8.73817198 151.54088026
Sb 29.56144014 11.20766967 153.22885725
Te 31.70658171 9.95326180 155.12961276
Sb 29.55811509 8.70097109 157.02725927
Te 29.55363424 11.17046893 158.71523696
Te 29.55422609 6.19044396 161.41123292
Sb 29.54974651 8.65994221 163.09921080
Te 31.69488676 7.40553369 164.99996357
Sb 29.54642136 6.15324345 166.89761865
Te 29.54194220 8.62274222 168.58558238
Te 31.68589985 7.36275808 171.30713080
Sb 31.68142086 9.83225720 172.99505859
Te 33.82656116 8.57784749 174.89591994
Sb 31.67807555 7.32555030 176.79337417
Te 31.67360429 9.79505165 178.48169146
Te 29.52418760 8.53732638 181.19611420
Sb 29.51929454 11.00656767 182.88598957
Te 31.66494455 9.75245338 184.78581076
Sb 29.51647144 8.50018385 186.68468663
Te 29.51133438 10.96950037 188.35991039
Te 29.90960817 8.24708146 191.54686340
Sb 29.89978828 10.71368575 193.22785170
Te 32.05091790 9.46268870 195.12415041
Sb 29.89243652 8.20477183 197.00185809
Te 29.88291273 10.67134636 198.69170087
Te 29.81672531 13.09917685 201.40492877
Bi 27.71993415 11.87658680 203.28752004
Te 27.80865875 14.39805354 205.28295936
Bi 29.89149220 13.00466845 1.82995826
Te 27.68348547 11.72014260 3.45292603
Te 30.10687226 13.09798441 6.47807716
Bi 28.05419786 11.90654042 8.43872994
Te 28.20168699 14.46336960 10.37148755
Bi 30.18158559 13.11425314 12.57655721
Te 27.94015974 11.79860916 14.12136890
Te 30.05146077 12.70198998 17.17612282
Bi 27.99788231 11.51701349 19.13926335
Te 28.15501590 14.07756030 21.06484552
Bi 30.12571494 12.71953119 23.27685294
Te 27.88003856 11.40452442 24.81703454
Te 29.75661126 12.66233069 27.89435858
Bi 27.70929437 11.47153142 29.85716957
Te 27.86983981 14.03541884 31.77872819
Bi 29.83678684 12.67562595 33.99307769
Te 27.58762192 11.36435154 35.53130222
Te 29.46943996 12.62001222 38.60804497
Bi 27.41943712 11.43316293 40.56981559
Te 27.57676614 13.99576286 42.49379470
Bi 29.54792189 12.64137015 44.70461716
Te 27.30441195 11.32327469 46.24403493
Te 29.42034629 12.22823614 49.29876709
Bi 27.36501641 11.04674107 51.26166875
Te 27.51948843 13.60637111 53.18901408
Bi 29.49383872 12.25339063 55.39781308
Te 27.25315670 10.93197255 56.93857402
Te 29.36322148 11.84124412 59.99456530
Bi 27.31097629 10.65409775 61.95764996
Te 27.46829705 13.21420817 63.88303164
Bi 29.43883875 11.85696888 66.09462863
Te 27.19174884 10.54536076 67.63561477
Te 29.24111060 11.51616266 70.70900674
Bi 27.19453427 10.31986489 72.66745056
Te 27.34763155 12.87890318 74.59562011
Bi 29.32639345 11.52676067 76.80207031
Te 27.08010370 10.22103803 78.34614759
Te 29.58760472 11.65073519 81.39140464
Bi 27.50878225 10.43876470 83.29788233
Te 27.60966389 12.96739955 85.27724180
Bi 29.65098293 11.65153767 87.42525335
Te 27.44127962 10.36543392 89.04323162
Te 31.83962226 12.88970964 91.79098603
Bi 29.64933430 11.61461594 93.45147336
Te 29.59087668 14.05026208 95.59051665
Bi 31.79114084 12.82704797 97.60130595
Te 29.67954574 11.59638877 99.44850981
Te 27.48209077 10.31123716 102.10998572
Sb 27.48133756 12.78291410 103.79368064
Te 29.62388827 11.52696724 105.70158339
Sb 27.48085222 10.27775885 107.60898763
Te 27.47925070 12.74894214 109.29317772
Te 29.62033605 11.48731422 112.01247537
Sb 29.61526423 13.95646710 113.70100060
Te 31.76082462 12.70230679 115.60081418
Sb 29.61172572 11.44965798 117.49732237
Te 29.60684397 13.91892088 119.18579587
Te 27.45772389 12.66136149 121.90448230
Sb 27.45317988 15.13082226 123.59251477
Te 29.59836583 13.87644068 125.49316652
Sb 27.44982669 12.62410912 127.39068186
Te 27.44530197 15.09358075 129.07871418
Te 27.44595609 10.11359224 131.77476481
Sb 27.44146756 12.58308544 133.46274872
Te 29.58661468 11.32868079 135.36349197
Sb 27.43813936 10.07638539 137.26112300
Te 27.43365335 12.54588005 138.94910679
Te 29.57761344 11.28589887 141.67051887
Sb 29.57313349 13.75539715 143.35849538
Te 31.71827456 12.50098870 145.25925201
Sb 29.56980872 11.24869844 147.15689986
Te 29.56532823 13.71819648 148.84487661
Te 27.41567424 12.46032919 151.56317473
Sb 27.41119333 14.92982675 153.25115182
Te 29.55633489 13.67541890 155.15190724
Sb 27.40786825 12.42312821 157.04955364
Te 27.40338765 14.89262598 158.73753157
Te 27.40397960 9.91260120 161.43352744
Sb 27.39949968 12.38209949 163.12150514
Te 29.54463997 11.12769092 165.02225810
Sb 27.39617456 9.87540086 166.91991304
Te 27.39169552 12.34489937 168.60787697
Te 29.53565303 11.08491554 171.32942512
Sb 29.53117412 13.55441451 173.01735296
Te 31.67631440 12.30000466 174.91821431
Sb 29.52782867 11.04770746 176.81566854
Te 29.52335763 13.51720890 178.50398602
Te 27.37394088 12.25948360 181.21840836
Sb 27.36904795 14.72872489 182.90828419
Te 29.51469797 13.47461040 184.80810529
Sb 27.36622483 12.22234086 186.70698113
Te 27.36108789 14.69165744 188.38220504
Te 27.75936132 11.96923886 191.56915778
Sb 27.74954144 14.43584318 193.25014609
Te 29.90067107 13.18484610 195.14644485
Sb 27.74218956 11.92692915 197.02415248
Te 27.73266601 14.39350371 198.71399530
Te 27.66647873 16.82133392 201.42722320
Bi 25.56968742 15.59874380 203.30981456
Te 25.65841204 18.12021050 205.30525390
Bi 27.74124560 16.72682552 1.85225274
Te 25.53323895 15.44229963 3.47522059
Te 27.95662594 16.82014171 6.50037193
Bi 25.90395153 15.62869771 8.46102463
Te 26.05144046 18.18552666 10.39378247
Bi 28.03133917 16.83641032 12.59885197
Te 25.78991334 15.52076635 14.14366355
Te 27.90121393 16.42414738 17.19841769
Bi 25.84763584 15.23917059 19.16155810
Te 26.00476939 17.79971738 21.08714044
Bi 27.97546844 16.44168831 23.29914772
Te 25.72979205 15.12668161 24.83932925
Te 27.60636452 16.38448803 27.91665315
Bi 25.55904774 15.19368883 29.87946422
Te 25.71959326 17.75757595 31.80102310
Bi 27.68654024 16.39778285 34.01537258
Te 25.43737523 15.08650849 35.55359707
Te 27.31919326 16.34216972 38.63033975
Bi 25.26919036 15.15532021 40.59210994
Te 25.42651960 17.71791976 42.51608945
Bi 27.39767545 16.36352723 44.72691191
Te 25.15416516 15.04543153 46.26632954
Te 27.27009950 15.95039348 49.32106174
Bi 25.21476978 14.76889825 51.28396332
Te 25.36924199 17.32852811 53.21130890
Bi 27.34359210 15.97554765 55.42010786
Te 25.10291018 14.65412941 56.96086865
Te 27.21297483 15.56340136 60.01685990
Bi 25.16072955 14.37625515 61.97994469
Te 25.31805048 16.93636526 63.90532639
Bi 27.28859197 15.57912597 66.11692338
Te 25.04150208 14.26751755 67.65790925
Te 27.09086362 15.23832007 70.73130137
Bi 25.04428743 14.04202218 72.68974523
Te 25.19738486 16.60106046 74.61791485
Bi 27.17614673 15.24891770 76.82436503
Te 24.92985693 13.94319501 78.36844207
Te 27.43735807 15.37289229 81.41369928
Bi 25.35853537 14.16092205 83.32017688
Te 25.45941723 16.68955670 85.29953649
Bi 27.50073635 15.37369471 87.44754785
Te 25.29103304 14.08759090 89.06552629
Te 29.68937545 16.61186662 91.81328048
Bi 27.49908758 15.33677281 93.47376823
Te 27.44062996 17.77241920 95.61281128
Bi 29.64089433 16.54920507 97.62360042
Te 27.52929926 15.31854610 99.47080450
Te 25.33184402 14.03339437 102.13228020
Sb 25.33109099 16.50507119 103.81597521
Te 27.47364165 15.24912440 105.72387790
Sb 25.33060552 13.99991616 107.63128242
Te 25.32900405 16.47109935 109.31547236
Te 27.47008939 15.20947134 112.03476999
Sb 27.46501764 17.67862420 113.72329511
Te 29.61057789 16.42446405 115.62310892
Sb 27.46147902 15.17181505 117.51961696
Te 27.45659731 17.64107803 119.20809066
Te 25.30747717 16.38351852 121.92677697
Sb 25.30293333 18.85297934 123.61480950
Te 27.44811915 17.59859776 125.51546127
Sb 25.29958001 16.34626618 127.41297640
Te 25.29505542 18.81573777 129.10100885
Te 25.29570934 13.83574949 131.79705918
Sb 25.29122097 16.30524277 133.48504347
Te 27.43636797 15.05083797 135.38578642
Sb 25.28789268 13.79854267 137.28341754
Te 25.28340669 16.26803690 138.97140141
Te 27.42736686 15.00805627 141.69281353
Sb 27.42288676 17.47755414 143.38079024
Te 29.56802799 16.22314586 145.28154665
Sb 27.41956205 14.97085569 147.17919447
Te 27.41508167 17.44035349 148.86717131
Te 25.26542759 16.18248639 151.58546929
Sb 25.26094694 18.65198401 153.27344634
Te 27.40608847 17.39757601 155.17420187
Sb 25.25762155 16.14528539 157.07184822
Te 25.25314110 18.61478318 158.75982613
Te 25.25373281 13.63475840 161.45582192
Sb 25.24925304 16.10425667 163.14379973
Te 27.39439331 14.84984799 165.04455258
Sb 25.24592777 13.59755803 166.94220763
Te 25.24144877 16.06705676 168.63017148
Te 27.38540629 14.80707273 171.35171960
Sb 27.38092743 17.27657173 173.03964768
Te 29.52606777 16.02216181 174.94050878
Sb 27.37758223 14.76986471 176.83796318
Te 27.37311104 17.23936609 178.52628069
Te 25.22369421 15.98164086 181.24070304
Sb 25.21880130 18.45088214 182.93057880
Te 27.36445133 17.19676758 184.83039994
Sb 25.21597821 15.94449790 186.72927568
Te 25.21084135 18.41381437 188.40449962
Te 25.60911472 15.69139620 191.59145233
Sb 25.59929492 18.15800033 193.27244074
Te 27.75042454 16.90700324 195.16873948
Sb 25.59194291 15.64908642 197.04644700
Te 25.58241949 18.11566073 198.73629002
Te 25.51623222 20.54349105 201.44951803
Bi 23.41944084 19.32090108 203.33210935
Te 23.50816564 21.84236762 205.32754889
Bi 25.59099903 20.44898247 1.87454728
Te 23.38299232 19.16445665 3.49751534
Te 25.80637954 20.54229897 6.52266681
Bi 23.75370506 19.35085486 8.48331945
Te 23.90119395 21.90768375 10.41607753
Bi 25.88109279 20.55856730 12.62114691
Te 23.63966682 19.24292323 14.16595861
Te 25.75096756 20.14630474 17.22071253
Bi 23.69738929 18.96132802 19.18385296
Te 23.85452282 21.52187465 21.10943558
Bi 25.82522218 20.16384539 23.32144287
Te 23.57954559 18.84883861 24.86162404
Te 25.45611803 20.10664538 27.93894814
Bi 23.40880115 18.91584590 29.90175917
Te 23.56934678 21.47973291 31.82331826
Bi 25.53629383 20.11993984 34.03766768
Te 23.28712881 18.80866539 35.57589192
Te 25.16894655 20.06432698 38.65263480
Bi 23.11894375 18.87747748 40.61440502
Te 23.27627311 21.44007718 42.53838461
Bi 25.24742887 20.08568398 44.74920688
Te 23.00391891 18.76758842 46.28862420
Te 25.11985292 19.67255062 49.34335669
Bi 23.06452322 18.49105554 51.30625840
Te 23.21899559 21.05068509 53.23360416
Bi 25.19334581 19.69770452 55.44240297
Te 22.95266364 18.37628629 56.98316350
Te 25.06272809 19.28555857 60.03915475
Bi 23.01048286 18.09841228 62.00223941
Te 23.16780401 20.65852243 63.92762139
Bi 25.13834539 19.30128285 66.13921839
Te 22.89125560 17.98967421 67.68020403
Te 24.94061698 18.96047721 70.75359614
Bi 22.89404067 17.76417937 72.71204000
Te 23.04713839 20.32321753 74.64020967
Bi 25.02590013 18.97107478 76.84665986
Te 22.77961032 17.66535180 78.39073680
Te 25.28711142 19.09504945 81.43599410
Bi 23.20828883 17.88307916 83.34247168
Te 23.30917063 20.41171383 85.32183135
Bi 25.35048981 19.09585203 87.46984261
Te 23.14078634 17.80974807 89.08782099
Te 27.53912895 20.33402366 91.83557521
Bi 25.34884098 19.05893006 93.49606245
Te 25.29038360 21.49457621 95.63510601
Bi 27.49064766 20.27136210 97.64589531
Te 25.37905257 19.04070288 99.49309923
Te 23.18159731 17.75555155 102.15457488
Sb 23.18084435 20.22722827 103.83826991
Te 25.32339490 18.97128144 105.74617252
Sb 23.18035877 17.72207323 107.65357709
Te 23.17875744 20.19325643 109.33776707
Te 25.31984270 18.93162835 112.05706464
Sb 25.31477105 21.40078122 113.74558996
Te 27.46033134 20.14662092 115.64540358
Sb 25.31123249 18.89397219 117.54191170
Te 25.30635073 21.36323501 119.23038542
Te 23.15723062 20.10567553 121.94907162
Sb 23.15268675 22.57513636 123.63710420
Te 25.29787258 21.32075476 125.53775606
Sb 23.14933342 20.06842321 127.43527115
Te 23.14480875 22.53789479 129.12330357
Te 23.14546271 17.55790646 131.81935367
Sb 23.14097439 20.02739975 133.50733802
Te 25.28612145 18.77299511 135.40808102
Sb 23.13764610 17.52069973 137.30571210
Te 23.13316013 19.99019397 138.99369602
Te 25.27712039 18.73021332 141.71510828
Sb 25.27264025 21.19971122 143.40308486
Te 27.41778148 19.94530304 145.30384140
Sb 25.26931554 18.69301277 147.20148912
Te 25.26483512 21.16251051 148.88946605
Te 23.11518103 19.90464348 151.60776386
Sb 23.11070021 22.37414097 153.29574101
Te 25.25584177 21.11973321 155.19649654
Sb 23.10737497 19.86744258 157.09414285
Te 23.10289458 22.33694019 158.78212087
Te 23.10348609 17.35691566 161.47811645
Sb 23.09900658 19.82641370 163.16609435
Te 25.24414671 18.57200517 165.06684708
Sb 23.09568130 17.31971521 166.96450210
Te 23.09120228 19.78921374 168.65246609
Te 25.23515962 18.52922989 171.37401430
Sb 25.23068089 20.99872884 173.06194225
Te 27.37582114 19.74431903 174.96280352
Sb 25.22733559 18.49202175 176.86025770
Te 25.22286443 20.96152311 178.54857545
Te 23.07344768 19.70379793 181.26299776
Sb 23.06855476 22.17303901 182.95287367
Te 25.21420475 20.91892464 184.85269470
Sb 23.06573169 19.66665482 186.75157038
Te 23.06059481 22.13597117 188.42679456
Te 23.45886800 19.41355354 191.61374701
Sb 23.44904822 21.88015767 193.29473536
Te 25.60017763 20.62916039 195.19103411
Sb 23.44169639 19.37124349 197.06874184
Te 23.43217293 21.83781779 198.75858478
Te 23.36598580 24.26564819 201.47181288
Bi 21.26919429 23.04305813 203.35440407
Te 21.35791911 25.56452456 205.34984376
Bi 23.44075251 24.17113956 1.89684262
Te 21.23274582 22.88661339 3.51981023
Te 23.65613318 24.26445605 6.54496193
Bi 21.60345866 23.07301205 8.50561451
Te 21.75094744 25.62984075 10.43837275
Bi 23.73084639 24.28072443 12.64344194
Te 21.48942046 22.96508021 14.18825363
Te 23.60072116 23.86846193 17.24300765
Bi 21.54714297 22.68348509 19.20614815
Te 21.70427649 25.24403165 21.13173072
Bi 23.67497573 23.88600267 23.34373818
Te 21.42929936 22.57099562 24.88391925
Te 23.30587157 23.82880266 27.96124356
Bi 21.25855471 22.63800318 29.92405442
Te 21.41910035 25.20189011 31.84561349
Bi 23.38604742 23.84209692 34.05996273
Te 21.13688247 22.53082239 35.59818714
Te 23.01870026 23.78648416 38.67492983
Bi 20.96869731 22.59963467 40.63669991
Te 21.12602681 25.16223413 42.56067987
Bi 23.09718257 23.80784110 44.77150210
Te 20.85367241 22.48974535 46.31091953
Te 22.96960615 23.39470779 49.36565187
Bi 20.91427671 22.21321246 51.32855367
Te 21.06874911 24.77284215 53.25589937
Bi 23.04309929 23.41986150 55.46469833
Te 20.80241713 22.09844314 57.00545871
Te 22.91248138 23.00771580 60.06144999
Bi 20.86023636 21.82056931 62.02453468
Te 21.01755738 24.38067943 63.94991650
Bi 22.98809885 23.02343987 66.16151338
Te 20.74100893 21.71183114 67.70249906
Te 22.79037039 22.68263425 70.77589102
Bi 20.74379399 21.48633642 72.73433484
Te 20.89689184 24.04537464 74.66250459
Bi 22.87565361 22.69323189 76.86895471
Te 20.62936387 21.38750886 78.41303165
Te 23.13686492 22.81720639 81.45828883
Bi 21.05804216 21.60523623 83.36476646
Te 21.15892411 24.13387089 85.34412609
Bi 23.20024315 22.81800901 87.49213741
Te 20.99053981 21.53190500 89.11011566
Te 25.38888206 24.05618050 91.85787000
Bi 23.19859454 22.78108701 93.51835752
Te 23.14013695 25.21673325 95.65740075
Bi 25.34040116 23.99351912 97.66818996
Te 23.22880608 22.76286000 99.51539393
Te 21.03135079 21.47770847 102.17686965
Sb 21.03059786 23.94938531 103.86056460
Te 23.17314848 22.69343853 105.76846727
Sb 21.03011217 21.44423028 107.67587175
Te 21.02851091 23.91541346 109.36006183
Te 23.16959612 22.65378547 112.07935935
Sb 23.16452457 25.12293806 113.76788473
Te 25.31008479 23.86877802 115.66769831
Sb 23.16098587 22.61612928 117.56420647
Te 23.15610420 25.08539216 119.25268005
Te 21.00698403 23.82783259 121.97136640
Sb 21.00244021 26.29729343 123.65939888
Te 23.14762609 25.04291182 125.56005079
Sb 20.99908688 23.79058031 127.45756590
Te 20.99456222 26.26005191 129.14559826
Te 20.99521611 21.28006361 131.84164831
Sb 20.99072780 23.74955679 133.52963268
Te 23.13587483 22.49515216 135.43037569
Sb 20.98739959 21.24285672 137.32800681
Te 20.98291349 23.71235093 139.01599067
Te 23.12687367 22.45237040 141.73740295
Sb 23.12239369 24.92186824 143.42537964
Te 25.26753489 23.66745996 145.32613607
Sb 23.11906890 22.41516989 147.22378393
Te 23.11458851 24.88466769 148.91176081
Te 20.96493446 23.62680065 151.63005850
Sb 20.96045384 26.09629805 153.31803566
Te 23.10559530 24.84189007 155.21879127
Sb 20.95712843 23.58959956 157.11643761
Te 20.95264806 26.05909720 158.80441569
Te 20.95323945 21.07907278 161.50041108
Sb 20.94875983 23.54857105 163.18838917
Te 23.09390007 22.29416220 165.08914183
Sb 20.94543465 21.04187223 166.98679680
Te 20.94095554 23.51137089 168.67476084
Te 23.08491304 22.25138717 171.39630896
Sb 23.08043427 24.72088588 173.08423711
Te 25.22557454 23.46647598 174.98509831
Sb 23.07708895 22.21417890 176.88255255
Te 23.07261794 24.68368024 178.57087025
Te 20.92320118 23.42595498 181.28529255
Sb 20.91830821 25.89519601 182.97516835
Te 23.06395826 24.64108155 184.87498960
Sb 20.91548505 23.38881199 186.77386524
Te 20.91034824 25.85812834 188.44908927
Te 21.30862145 23.13571080 191.63604177
Sb 21.29880172 25.60231476 193.31703027
Te 23.44993129 24.35131761 195.21332897
Sb 21.29144983 23.09340049 197.09103667
Te 21.28192649 25.55997482 198.78087975
Te 21.21573927 27.98780509 201.49410789
Bi 19.11894779 26.76521527 203.37669915
Te 19.20767263 29.28668162 205.37213896
Bi 21.29050605 27.89329653 1.91913749
Te 19.08249930 26.60877051 3.54210528
Te 21.50588671 27.98661307 6.56725691
Bi 19.45321225 26.79516920 8.52790969
Te 19.60070097 29.35199785 10.46066785
Bi 21.58059987 28.00288150 12.66573716
Te 19.33917397 26.68723716 14.21054892
Te 21.45047477 27.59061879 17.26530283
Bi 19.39689651 26.40564233 19.22844332
Te 19.55403023 28.96618886 21.15402602
Bi 21.52472927 27.60815965 23.36603333
Te 19.27905286 26.29315275 24.90621467
Te 21.15562522 27.55095964 27.98353879
Bi 19.10830828 26.36016028 29.94634964
Te 19.26885387 28.92404724 31.86790879
Bi 21.23580094 27.56425399 34.08225811
Te 18.98663600 26.25297957 35.62048251
Te 20.86845378 27.50864119 38.69722525
Bi 18.81845102 26.32179174 40.65899547
Te 18.97578035 28.88439127 42.58297519
Bi 20.94693624 27.52999800 44.79379742
Te 18.70342603 26.21190221 46.33321478
Te 20.81935970 27.11686490 49.38794720
Bi 18.76403027 25.93536957 51.35084897
Te 18.91850266 28.49499915 53.27819469
Bi 20.89285269 27.14201838 55.48699367
Te 18.65217052 25.82060008 57.02775393
Te 20.76223502 26.72987308 60.08374500
Bi 18.70998986 25.54272635 62.04682951
Te 18.86731111 28.10283631 63.97221173
Bi 20.83785250 26.74559681 66.18380871
Te 18.59076268 25.43398802 67.72479414
Te 20.64012406 26.40479153 70.79818603
Bi 18.59354767 25.20849359 72.75662975
Te 18.74664527 27.76753166 74.68479967
Bi 20.72540726 26.41538885 76.89124970
Te 18.47911741 25.10966581 78.43532645
Te 20.98661836 26.53936351 81.48058367
Bi 18.90779568 25.32739338 83.38706135
Te 19.00867748 27.85602806 85.36642091
Bi 21.04999662 26.54016590 87.51443223
Te 18.84029330 25.25406200 89.13241058
Te 23.23863570 27.77833760 91.88016474
Bi 21.04834792 26.50324406 93.54065221
Te 20.98989054 28.93889023 95.67969543
Bi 23.19015460 27.71567618 97.69048470
Te 21.07855931 26.48501689 99.53768857
Te 18.88110421 25.19986555 102.19916427
Sb 18.88035127 27.67154234 103.88285934
Te 21.02290190 26.41559555 105.79076191
Sb 18.87986560 25.16638732 107.69816641
Te 18.87826432 27.63757035 109.38235649
Te 21.01934963 26.37594242 112.10165411
Sb 21.01427792 28.84509526 113.79017940
Te 23.15983832 27.59093501 115.68999306
Sb 21.01073929 26.33828624 117.58650129
Te 21.00585758 28.80754917 119.27497478
Te 18.85673746 27.54998970 121.99366108
Sb 18.85219369 30.01945050 123.68169373
Te 20.99737958 28.76506886 125.58234550
Sb 18.84884043 27.51273739 127.47986059
Te 18.84431583 29.98220895 129.16789297
Te 18.84496951 25.00222066 131.86394298
Sb 18.84048128 27.47171380 133.55192740
Te 20.98562837 26.21730920 135.45267031
Sb 18.83715309 24.96501370 137.35030142
Te 18.83266687 27.43450795 139.03828544
Te 20.97662726 26.17452739 141.75969773
Sb 20.97214725 28.64402520 143.44767430
Te 23.11728829 27.38961697 145.34843084
Sb 20.96882238 26.13732679 147.24607855
Te 20.96434194 28.60682455 148.93405544
Te 18.81468790 27.34895762 151.65235326
Sb 18.81020734 29.81845512 153.34033045
Te 20.95534878 28.56404718 155.24108610
Sb 18.80688185 27.31175675 157.13873233
Te 18.80240145 29.78125439 158.82671021
Te 18.80299298 24.80122987 161.52270576
Sb 18.79851336 27.27072791 163.21068377
Te 20.94365345 26.01631941 165.11143644
Sb 18.79518819 24.76402937 167.00909144
Te 18.79070907 27.23352789 168.69705554
Te 20.93466647 25.97354406 171.41860364
Sb 20.93018777 28.44304291 173.10653174
Te 23.07532791 27.18863315 175.00739307
Sb 20.92684250 25.93633594 176.90484744
Te 20.92237125 28.40583722 178.59316499
Te 18.77295458 27.14811200 181.30758743
Sb 18.76806163 29.61735302 182.99746332
Te 20.91371168 28.36323848 184.89728438
Sb 18.76523860 27.11096882 186.79616006
Te 18.76010167 29.58028519 188.47138422
Te 19.15837495 26.85786783 191.65833660
Sb 19.14855509 29.32447174 193.33932525
Te 21.29968466 28.07347452 195.23562395
Sb 19.14120328 26.81555765 197.11333166
Te 19.13167996 29.28213197 198.80317467
Te 19.06549264 31.70996205 201.51640292
Bi 16.96870135 30.48737234 203.39899444
Te 17.05742611 33.00883887 205.39443391
Bi 19.14025950 31.61545360 1.94143250
Te 16.93225277 30.33092751 3.56440027
Te 19.35564020 31.70876996 6.58955193
Bi 17.30296573 30.51732609 8.55020469
Te 17.45045456 33.07415507 10.48296278
Bi 19.43035340 31.72503842 12.68803230
Te 17.18892748 30.40939422 14.23284396
Te 19.30022836 31.31277578 17.28759782
Bi 17.24665017 30.12779925 19.25073860
Te 17.40378366 32.68834601 21.17632104
Bi 19.37448270 31.33031666 23.38832859
Te 17.12880620 30.01530982 24.92850967
Te 19.00537875 31.27311646 28.00583402
Bi 16.95806187 30.08231728 29.96864486
Te 17.11860740 32.64620431 31.89020400
Bi 19.08555455 31.28641119 34.10455340
Te 16.83638937 29.97513672 35.64277780
Te 18.71820743 31.23079826 38.71952052
Bi 16.66820458 30.04394890 40.68129068
Te 16.82553396 32.60654830 42.60527041
Bi 18.79668973 31.25215524 44.81609269
Te 16.55317980 29.93405944 46.35550996
Te 18.66911317 30.83902188 49.41024257
Bi 16.61378376 29.65752647 51.37314428
Te 16.76825604 32.21715625 53.30048994
Bi 18.74260614 30.86417555 55.50928893
Te 16.50192409 29.54275704 57.05004921
Te 18.61198852 30.45202967 60.10604025
Bi 16.55974345 29.26488343 62.06912499
Te 16.71706458 31.82499343 63.99450668
Bi 18.68760612 30.46775391 66.20610350
Te 16.44051618 29.15614516 67.74708911
Te 18.48987770 30.12694851 70.82048089
Bi 16.44330134 28.93065069 72.77892455
Te 16.59639904 31.48968872 74.70709454
Bi 18.57516079 30.13754588 76.91354481
Te 16.32887095 28.83182288 78.45762157
Te 18.83637189 30.26152047 81.50287860
Bi 16.75754913 29.04955032 83.40935605
Te 16.85843104 31.57818488 85.38871581
Bi 18.89975013 30.26232300 87.53672716
Te 16.69004681 28.97621894 89.15470535
Te 21.08838918 31.50049457 91.90245934
Bi 18.89810132 30.22540099 93.56294698
Te 18.83964379 32.66104737 95.70199006
Bi 21.03990811 31.43783318 97.71277944
Te 18.92831284 30.20717412 99.55998321
Te 16.73085770 28.92202259 102.22145892
Sb 16.73010479 31.39369936 103.90515401
Te 18.87265535 30.13775256 105.81305678
Sb 16.72961916 28.88854427 107.72046104
Te 16.72801775 31.35972739 109.40465116
Te 18.86910305 30.09809963 112.12394884
Sb 18.86403147 32.56725224 113.81247409
Te 21.00959160 31.31309219 115.71228765
Sb 18.86049272 30.06044338 117.60879593
Te 18.85561099 32.52970629 119.29726939
Te 16.70649100 31.27214674 122.01595589
Sb 16.70194711 33.74160755 123.70398855
Te 18.84713303 32.48722597 125.60464023
Sb 16.69859384 31.23489437 127.50215536
Te 16.69406910 33.70436615 129.19018769
Te 16.69472307 28.72437784 131.88623771
Sb 16.69023469 31.19387087 133.57422214
Te 18.83538175 29.93946617 135.47496510
Sb 16.68690640 28.68717070 137.37259616
Te 16.68242042 31.15666495 139.06058018
Te 18.82638076 29.89668430 141.78199238
Sb 18.82190057 32.36618234 143.46996900
Te 20.96704170 31.11177400 145.37072547
Sb 18.81857581 29.85948382 147.26837324
Te 18.81409542 32.32898165 148.95635018
Te 16.66444141 31.07111472 151.67464792
Sb 16.65996064 33.54061221 153.36262508
Te 18.80510213 32.28620438 155.26338065
Sb 16.65663533 31.03391380 157.16102699
Te 16.65215492 33.50341145 158.84900498
Te 16.65274655 28.52338680 161.54500042
Sb 16.64826673 30.99288497 163.23297853
Te 18.79340698 29.73847642 165.13373115
Sb 16.64494151 28.48618630 167.03138632
Te 16.64046264 30.95568487 168.71935023
Te 18.78441995 29.69570114 171.44089857
Sb 18.77994123 32.16519984 173.12882661
Te 20.92508152 30.91079004 175.02968788
Sb 18.77659582 29.65849297 176.92714225
Te 18.77212476 32.12799437 178.61545982
Te 16.62270811 30.87026895 181.32988234
Sb 16.61781505 33.33951014 183.01975814
Te 18.76346508 32.08539558 184.91957922
Sb 16.61499199 30.83312601 186.81845499
Te 16.60985504 33.30244255 188.49367881
Te 17.00812834 30.58002469 191.68063159
Sb 16.99830870 33.04662855 193.36162022
Te 19.14943836 31.79563153 195.25791893
Sb 16.99095687 30.53771477 197.13562652
Te 16.98143345 33.00428888 198.82546971
Te 16.91524613 35.43211910 201.53869778
Bi 14.81845477 34.20952918 203.42128911
Te 14.90717961 36.73099572 205.41672863
Bi 16.99001301 35.33761051 1.96372761
Te 14.78200647 34.05308478 3.58669524
Te 17.20539361 35.43092672 6.61184664
Bi 15.15271920 34.23948319 8.57249971
Te 15.30020794 36.79631211 10.50525753
Bi 17.28010666 35.44719561 12.71032741
Te 15.03868059 34.13155156 14.25513883
Te 17.14998168 35.03493262 17.30989293
Bi 15.09640361 33.84995632 19.27303367
Te 15.25353723 36.41050307 21.19861608
Bi 17.22423621 35.05247380 23.41062371
Te 14.97855964 33.73746690 24.95080474
Te 16.85513223 34.99527315 28.02812899
Bi 14.80781534 33.80447436 29.99094028
Te 14.96836084 36.36836151 31.91249900
Bi 16.93530795 35.00856854 34.12684836
Te 14.68614297 33.69729386 35.66507277
Te 16.56796108 34.95295494 38.74181553
Bi 14.51795815 33.76610596 40.70358601
Te 14.67528748 36.32870553 42.62756546
Bi 16.64644341 34.97431236 44.83838795
Te 14.40293322 33.65621649 46.37780525
Te 16.51886666 34.56117893 49.43253765
Bi 14.46353716 33.37968351 51.39543943
Te 14.61800927 35.93931330 53.32278509
Bi 16.59235961 34.58633279 55.53158402
Te 14.35167764 33.26491423 57.07234434
Te 16.46174198 34.17418684 60.12833526
Bi 14.40949696 32.98704037 62.09141987
Te 14.56681806 35.54715056 64.01680174
Bi 16.53735955 34.18991101 66.22839861
Te 14.29026976 32.87830232 67.76938409
Te 16.33963119 33.84910569 70.84277595
Bi 14.29305482 32.65280759 72.80121970
Te 14.44615248 35.21184586 74.72938958
Bi 16.42491439 33.85970301 76.93583969
Te 14.17862462 32.55397997 78.47991642
Te 16.68612528 33.98367750 81.52517340
Bi 14.60730254 32.77170728 83.43165082
Te 14.70818442 35.30034195 85.41101053
Bi 16.74950363 33.98447999 87.55902185
Te 14.53980026 32.69837595 89.17700017
Te 18.93814262 35.22265174 91.92475400
Bi 16.74785480 33.94755803 93.58524174
Te 16.68939726 36.38320447 95.72428493
Bi 18.88966137 35.15999037 97.73507409
Te 16.77806610 33.92933122 99.58227799
Te 14.58061118 32.64417951 102.24375357
Sb 14.57985813 35.11585645 103.92744853
Te 16.72240876 33.85990966 105.83535124
Sb 14.57937252 32.61070132 107.74275566
Te 14.57777125 35.08188448 109.42694570
Te 16.71885655 33.82025651 112.14624355
Sb 16.71378497 36.28940942 113.83476871
Te 18.85934514 35.03524926 115.73458231
Sb 16.71024625 33.78260042 117.63109047
Te 16.70536434 36.25186336 119.31956395
Te 14.55624434 34.99430389 122.03825059
Sb 14.55170060 37.46376454 123.72628326
Te 16.69688659 36.20938304 125.62693496
Sb 14.54834716 34.95705153 127.52445003
Te 14.54382248 37.42652332 129.21248238
Te 14.54447638 32.44653477 131.90853249
Sb 14.53998816 34.91602804 133.59651691
Te 16.68513511 33.66162309 135.49725992
Sb 14.53665977 32.40932780 137.39489086
Te 14.53217377 34.87882205 139.08287468
Te 16.67613395 33.61884128 141.80428697
Sb 16.67165385 36.08833935 143.49226346
Te 18.81679505 34.83393128 145.39302009
Sb 16.66832925 33.58164102 147.29066793
Te 16.66384887 36.05113878 148.97864474
Te 14.51419483 34.79327182 151.69694257
Sb 14.50971409 37.26276928 153.38491971
Te 16.65485554 36.00836141 155.28567527
Sb 14.50638867 34.75607102 157.18332175
Te 14.50190832 37.22556866 158.87129957
Te 14.50249988 32.24554378 161.56729511
Sb 14.49802024 34.71504203 163.25527322
Te 16.64316046 33.46063347 165.15602606
Sb 14.49469493 32.20834345 167.05368090
Te 14.49021617 34.67784193 168.74164505
Te 16.63417342 33.41785804 171.46319328
Sb 16.62969468 35.88735687 173.15112127
Te 18.77483480 34.63294698 175.05198258
Sb 16.62634926 33.38065003 176.94943715
Te 16.62187820 35.85015141 178.63775456
Te 14.47246154 34.59242603 181.35217721
Sb 14.46756847 37.06166730 183.04205301
Te 16.61321845 35.80755274 184.94187407
Sb 14.46474538 34.55528302 186.84074982
Te 14.45960847 37.02459955 188.51597383
Te 14.85788203 34.30218154 191.70292649
Sb 14.84806211 36.76878564 193.38391497
Te 16.99919181 35.51778858 195.28021367
Sb 14.84071033 34.25987163 197.15792136
Te 14.83118682 36.72644589 198.84776455
Te 14.76499935 39.15427601 201.56099260
Bi 12.66820818 37.93168635 203.44358420
Te 12.75693297 40.45315320 205.43902335
Bi 14.83976636 39.05976766 1.98602213
Te 12.63175967 37.77524175 3.60898999
Te 15.05514696 39.15308373 6.63414136
Bi 13.00247259 37.96164024 8.59479459
Te 13.14996118 40.51846937 10.52755218
Bi 15.12985995 39.16935295 12.73262189
Te 12.88843404 37.85370883 14.27743342
Te 14.99973502 38.75708942 17.33218757
Bi 12.94615699 37.57211322 19.29532857
Te 13.10329046 40.13266023 21.22091070
Bi 15.07398953 38.77463111 23.43291832
Te 12.82831317 37.45962415 24.97309959
Te 14.70488568 38.71743006 28.05042377
Bi 12.65756881 37.52663138 30.01323506
Te 12.81811428 40.09051856 31.93479386
Bi 14.78506137 38.73072575 34.14914349
Te 12.53589639 37.41945133 35.68736772
Te 14.41771458 38.67511176 38.76411018
Bi 12.36771163 37.48826278 40.72588083
Te 12.52504097 40.05086265 42.64986013
Bi 14.49619682 38.69646976 44.86068294
Te 12.25268661 37.37837369 46.40010008
Te 14.36862015 38.28333556 49.45483262
Bi 12.31329071 37.10184052 51.41773448
Te 12.46776274 39.66147058 53.34507968
Bi 14.44211298 38.30849007 55.55387850
Te 12.20143108 36.98707159 57.09463923
Te 14.31149568 37.89634380 60.15063017
Bi 12.25925045 36.70919760 62.11371477
Te 12.41657159 39.26930774 64.03909655
Bi 14.38711308 37.91206833 66.25069347
Te 12.14002323 36.60045958 67.79167895
Te 14.18938476 37.57126250 70.86507071
Bi 12.14280844 36.37496476 72.82351461
Te 12.29590606 38.93400298 74.75168433
Bi 14.27466795 37.58186026 76.95813445
Te 12.02837813 36.27613732 78.50221148
Te 14.53587888 37.70583451 81.54746824
Bi 12.45705594 36.49386449 83.45394574
Te 12.55793776 39.02249918 85.43330524
Bi 14.59925697 37.70663721 87.58131657
Te 12.38955384 36.42053312 89.19929490
Te 16.78789597 38.94480877 91.94704870
Bi 14.59760821 37.66971506 93.60753654
Te 14.53915063 40.10536171 95.74657946
Bi 16.73941489 38.88214744 97.75736877
Te 14.62781935 37.65148836 99.60457251
Te 12.43036456 36.36633674 102.26604824
Sb 12.42961141 38.83801359 103.94974326
Te 14.57216200 37.58206669 105.85764584
Sb 12.42912593 36.33285832 107.76505047
Te 12.42752464 38.80404170 109.44924038
Te 14.56860990 37.54241353 112.16853805
Sb 14.56353824 40.01156659 113.85706321
Te 16.70909843 38.75740645 115.75687680
Sb 14.55999958 37.50475764 117.65338508
Te 14.55511773 39.97402061 119.34185852
Te 12.40599766 38.71646089 122.06054511
Sb 12.40145376 41.18592179 123.74857758
Te 14.54663978 39.93154020 125.64922942
Sb 12.39810056 38.67920857 127.54674450
Te 12.39357576 41.14868037 129.23477682
Te 12.39422984 36.16869187 131.93082719
Sb 12.38974147 38.63818514 133.61881147
Te 14.53488850 37.38378049 135.51955445
Sb 12.38641320 36.13148494 137.41718555
Te 12.38192714 38.60097917 139.10516931
Te 14.52588740 37.34099835 141.82658151
Sb 14.52140734 39.81049640 143.51455797
Te 16.66654831 38.55608830 145.41531464
Sb 14.51808256 37.30379828 147.31296258
Te 14.51360214 39.77329612 149.00093915
Te 12.36394812 38.51542891 151.71923726
Sb 12.35946736 40.98492647 153.40721422
Te 14.50460890 39.73051848 155.30796981
Sb 12.35614213 38.47822813 157.20561627
Te 12.35166166 40.94772595 158.89359400
Te 12.35225323 35.96770094 161.58958985
Sb 12.34777373 38.43719916 163.27756771
Te 14.49291388 37.18279063 165.17832054
Sb 12.34444845 35.93050048 167.07597568
Te 12.33996950 38.39999904 168.76393957
Te 14.48392686 37.14001502 171.48548785
Sb 14.47944808 39.60951401 173.17341597
Te 16.62458834 38.35510411 175.07427724
Sb 14.47610276 37.10280715 176.97173169
Te 14.47163159 39.57230854 178.66004908
Te 12.32221479 38.31458321 181.37447204
Sb 12.31732183 40.78382447 183.06434764
Te 14.46297184 39.52970989 184.96416874
Sb 12.31449871 38.27744027 186.86304453
Te 12.30936176 40.74675682 188.53826840
Te 12.70763533 38.02433858 191.72522122
Sb 12.69781562 40.49094245 193.40620977
Te 14.84894519 39.23994549 195.30250853
Sb 12.69046372 37.98202876 197.18021610
Te 12.68094004 40.44860303 198.87005905
Te 12.61475281 42.87643315 201.58328696
Bi 10.51796162 41.65384341 203.46587860
Te 10.60668633 44.17531028 205.46131775
Bi 12.68951966 42.78192513 2.00831687
Te 10.48151299 41.49739921 3.63128437
Te 12.90490005 42.87524076 6.65643579
Bi 10.85222579 41.68379724 8.61708895
Te 10.99971424 44.24062657 10.54984648
Bi 12.97961305 42.89151047 12.75491631
Te 10.73818715 41.57586617 14.29972799
Te 12.84948842 42.47924630 17.35448211
Bi 10.79591038 41.29427016 19.31762302
Te 10.95304348 43.85481726 21.24320490
Bi 12.92374263 42.49678846 23.45521269
Te 10.67806630 41.18178153 24.99539415
Te 12.55463908 42.43958696 28.07271836
Bi 10.50732215 41.24878839 30.03552978
Te 10.66786752 43.81267565 31.95708795
Bi 12.63481462 42.45288323 34.17143764
Te 10.38564952 41.14160874 35.70966207
Te 12.26746792 42.39726863 38.78640498
Bi 10.21746499 41.21041973 40.74817556
Te 10.37479402 43.77301993 42.67215469
Bi 12.34594988 42.41862711 44.88297737
Te 10.10243983 41.10053124 46.42239472
Te 12.21837368 42.00549242 49.47712716
Bi 10.16304401 40.82399760 51.44002895
Te 10.31751589 43.38362764 53.36737420
Bi 12.29186614 42.03064749 55.57617344
Te 10.05118438 40.70922880 57.11693397
Te 12.16124920 41.61850080 60.17292471
Bi 10.10900391 40.43135452 62.13600948
Te 10.26632474 42.99146481 64.06139097
Bi 12.23686632 41.63422568 66.27298808
Te 9.98977656 40.32261687 67.81397383
Te 12.03913823 41.29341945 70.88736537
Bi 9.99256186 40.09712174 72.84580940
Te 10.14565923 42.65616022 74.77397883
Bi 12.12442144 41.30401753 76.98042907
Te 9.87813160 39.99829471 78.52450619
Te 12.38563213 41.42799160 81.56976273
Bi 10.30680927 40.21602149 83.47624010
Te 10.40769110 42.74465619 85.45559968
Bi 12.44901028 41.42879449 87.60361102
Te 10.23930707 40.14269051 89.22158949
Te 14.63764919 42.66696621 91.96934345
Bi 12.44736168 41.39187251 93.62983095
Te 12.38890400 43.82751894 95.76887387
Bi 14.58916823 42.60430471 97.77966335
Te 12.47757272 41.37364561 99.62686704
Te 10.28011782 40.08849376 102.28834289
Sb 10.27936478 42.56017068 103.97203771
Te 12.42191543 41.30422398 105.87994040
Sb 10.27887929 40.05501558 107.78734501
Te 10.27727784 42.52619898 109.47153490
Te 12.41836326 41.26457080 112.19083242
Sb 12.41329144 43.73372390 113.87935755
Te 14.55885179 42.47956375 115.77917123
Sb 12.40975285 41.22691481 117.67567948
Te 12.40487099 43.69617792 119.36415289
Te 10.25575108 42.43861816 122.08283967
Sb 10.25120711 44.90807892 123.77087204
Te 12.39639303 43.65369746 125.67152392
Sb 10.24785391 42.40136576 127.56903905
Te 10.24332912 44.87083768 129.25707110
Te 10.24398327 39.89084909 131.95312182
Sb 10.23949477 42.36034239 133.64110609
Te 12.38464173 41.10593756 135.54184905
Sb 10.23616647 39.85364203 137.43948012
Te 10.23168037 42.32313644 139.12746394
Te 12.37564075 41.06315557 141.84887596
Sb 12.37116051 43.53265368 143.53685244
Te 14.51630159 42.27824541 145.43760894
Sb 12.36783588 41.02595523 147.33525697
Te 12.36335530 43.49545328 149.02323347
Te 10.21370145 42.23758597 151.74153177
Sb 10.20922046 44.70708378 153.42950855
Te 12.35436218 43.45267576 155.33026420
Sb 10.20589556 42.20038525 157.22791084
Te 10.20141487 44.66988309 158.91588853
Te 10.20200676 39.68985814 161.61188449
Sb 10.19752704 42.15935641 163.29986239
Te 12.34266723 40.90494766 165.20061526
Sb 10.19420167 39.65265756 167.09827026
Te 10.18972268 42.12215634 168.78623404
Te 12.33368026 40.86217217 171.50778248
Sb 12.32920151 43.33167112 173.19571058
Te 14.47434177 42.07726129 175.09657177
Sb 12.32585610 40.82496428 176.99402610
Te 12.32138472 43.29446565 178.68234346
Te 10.17196816 42.03674030 181.39676661
Sb 10.16707506 44.50598158 183.08664218
Te 12.31272515 43.25186721 184.98646318
Sb 10.16425199 41.99959761 186.88533908
Te 10.15911496 44.46891438 188.56056272
Te 10.55738875 41.74649537 191.74751604
Sb 10.54756909 44.21309959 193.42850435
Te 12.69869870 42.96210248 195.32480322
Sb 10.54021691 41.70418574 197.20251077
Te 10.53069335 44.17076024 198.89235351
Te 10.46450585 46.59859018 201.60558129
Bi 8.36771483 45.37600060 203.48817316
Te 8.45643926 47.89746753 205.48361163
Bi 10.53927272 46.50408257 2.03061074
Te 8.33126602 45.21955661 3.65357855
Te 10.75465322 46.59739764 6.67872984
Bi 8.70197878 45.40595453 8.63938326
Te 8.84946725 47.96278393 10.57214045
Bi 10.82936601 46.61366786 12.77721027
Te 8.58794018 45.29802374 14.32202211
Te 10.69924181 46.20140318 17.37677605
Bi 8.64566334 45.01642721 19.33991712
Te 8.80279661 47.57697465 21.26549877
Bi 10.77349569 46.21894582 23.47750656
Te 8.52781946 44.90393907 25.01768828
Te 10.40439228 46.16174394 28.09501240
Bi 8.35707545 44.97094541 30.05782395
Te 8.51762049 47.53483316 31.97938169
Bi 10.48456753 46.17504069 34.19373158
Te 8.23540256 44.86376604 35.73195616
Te 10.11722117 46.11942563 38.80869890
Bi 8.06721825 44.93257678 40.77046961
Te 8.22454716 47.49517708 42.69444846
Bi 10.19570307 46.14078454 44.90527149
Te 7.95219306 44.82268889 46.44468892
Te 10.06812711 45.72764933 49.49942133
Bi 8.01279740 44.54615485 51.46232325
Te 8.16726907 47.10578509 53.38966813
Bi 10.14161921 45.75280488 55.59846736
Te 7.90093766 44.43138643 57.13922807
Te 10.01100261 45.34065773 60.19521903
Bi 7.95875726 44.15351169 62.15830394
Te 8.11607763 46.71362214 64.08368517
Bi 10.08661962 45.35638318 66.29528198
Te 7.83953003 44.04477475 67.83626817
Te 9.88889160 45.01557636 70.90965996
Bi 7.84231535 43.81927907 72.86810385
Te 7.99541241 46.37831771 74.79627311
Bi 9.97417457 45.02617493 77.00272315
Te 7.72788467 43.72045207 78.54680045
Te 10.23538526 45.15014890 81.59205701
Bi 8.15656275 43.93817865 83.49853465
Te 8.25744410 46.46681367 85.47789389
Bi 10.29876349 45.15095184 87.62590520
Te 8.08906029 43.86484773 89.24388395
Te 12.48740256 46.38912344 91.99163763
Bi 10.29711467 45.11402967 93.65212536
Te 10.23865703 47.54967627 95.79116826
Bi 12.43892136 46.32646214 97.80195757
Te 10.32732603 45.09580276 99.64916132
Te 8.12987116 43.81065101 102.31063726
Sb 8.12911805 46.28232797 103.99433196
Te 10.27166862 45.02638115 105.90223480
Sb 8.12863258 43.77717294 107.80963951
Te 8.12703090 46.24835646 109.49382918
Te 10.26811647 44.98672797 112.21312684
Sb 10.26304460 47.45588124 113.90165182
Te 12.40860492 46.20172087 115.80146555
Sb 10.25950596 44.94907211 117.69797381
Te 10.25462408 47.41833532 119.38644702
Te 8.10550429 46.16077538 122.10513388
Sb 8.10096029 48.63023640 123.79316627
Te 10.24614627 47.37585473 125.69381812
Sb 8.09760703 46.12352315 127.59133340
Te 8.09308225 48.59299524 129.27936527
Te 8.09373649 43.61300630 131.97541642
Sb 8.08924792 46.08249954 133.66340048
Te 10.23439501 44.82809492 135.56414350
Sb 8.08591973 43.57579924 137.46177461
Te 8.08143359 46.04529393 139.14975842
Te 10.22539392 44.78531273 141.87117051
Sb 10.22091362 47.25481098 143.55914669
Te 12.36605486 46.00040280 145.45990337
Sb 10.21758906 44.74811243 147.35755124
Te 10.21310858 47.21761067 149.04552774
Te 8.06345457 45.95974334 151.76382613
Sb 8.05897366 48.42924112 153.45180305
Te 10.20411540 47.17483290 155.35255846
Sb 8.05564880 45.92254248 157.25020515
Te 8.05116789 48.39204050 158.93818267
Te 8.05176001 43.41201527 161.63417900
Sb 8.04728034 45.88151357 163.32215668
Te 10.19242041 44.62710495 165.22290969
Sb 8.04395498 43.37481491 167.12056470
Te 8.03947586 45.84431366 168.80852839
Te 10.18343375 44.58432932 171.53007706
Sb 10.17895458 47.05382836 173.21800489
Te 12.32409488 45.79941863 175.11886613
Sb 10.17560932 44.54712161 177.01632047
Te 10.17113799 47.01662313 178.70463775
Te 8.02172144 45.75889746 181.41906108
Sb 8.01682821 48.22813896 183.10893616
Te 10.16247815 46.97402444 185.00875745
Sb 8.01400521 45.72175509 186.90763347
Te 8.00886802 48.19107190 188.58285686
Te 8.40714226 45.46865263 191.76981034
Sb 8.39732210 47.93525672 193.45079871
Te 10.54845181 46.68425989 195.34709747
Sb 8.38997031 45.42634306 197.22480508
Te 8.38044637 47.89291758 198.91464755
Te 8.31425886 50.32074761 201.62787504
Bi 6.21746786 49.09815790 203.51046702
Te 6.30619250 51.61962497 205.50590567
Bi 8.38902570 50.22623974 2.05290503
Te 6.18101892 48.94171413 3.67587257
Te 8.60440617 50.31955503 6.70102368
Bi 6.55173175 49.12811175 8.66167680
Te 6.69922010 51.68494118 10.59443405
Bi 8.67911896 50.33582528 12.79950415
Te 6.43769323 49.02018133 14.34431592
Te 8.54899475 49.92356049 17.39906988
Bi 6.49541647 48.73858436 19.36221086
Te 6.65254941 51.29913195 21.28779219
Bi 8.62324849 49.94110336 23.49980014
Te 6.37757248 48.62609668 25.03998193
Te 8.25414549 49.88390109 28.11730601
Bi 6.20682851 48.69310274 30.08011734
Te 6.36737344 51.25699050 32.00167512
Bi 8.33432058 49.89719827 34.21602518
Te 6.08515552 48.58592382 35.75424986
Te 7.96697420 49.84158277 38.83099271
Bi 5.91697134 48.65473401 40.79276357
Te 6.07429979 51.21733431 42.71674195
Bi 8.04545585 49.86294216 44.92756503
Te 5.80194610 48.54484627 46.46698260
Te 7.91788001 49.44980662 49.52171510
Bi 5.86255045 48.26831182 51.48461723
Te 6.01702193 50.82794259 53.41196171
Bi 7.99137232 49.47496246 55.62076073
Te 5.75069092 48.15354433 57.16152180
Te 7.86075575 49.06281499 60.21751290
Bi 5.80851037 47.87566905 62.18059765
Te 5.96583045 50.43577950 64.10597879
Bi 7.93637276 49.07854083 66.31757561
Te 5.68928301 47.76693226 67.85856229
Te 7.73864479 48.73773363 70.93195384
Bi 5.69206841 47.54143630 72.89039796
Te 5.84516550 50.10047504 74.81856691
Bi 7.82392739 48.74833227 77.02501749
Te 5.57763774 47.44260944 78.56909461
Te 8.08513845 48.87230612 81.61435109
Bi 6.00631575 47.66033606 83.52082877
Te 6.10719717 50.18897100 85.50018800
Bi 8.14851662 48.87310933 87.64819934
Te 5.93881330 47.58700525 89.26617805
Te 10.33715560 50.11128092 92.01393191
Bi 8.14686788 48.83618739 93.67441928
Te 8.08841018 51.27183376 95.81346235
Bi 10.28867430 50.04861969 97.82425167
Te 8.17707920 48.81796041 99.67145553
Te 5.97962447 47.53280845 102.33293160
Sb 5.97887114 50.00448546 104.01662624
Te 8.12142173 48.74853852 105.92452891
Sb 5.97838568 47.49933045 107.83193370
Te 5.97678402 49.97051390 109.51612315
Te 8.11786953 48.70888533 112.23542102
Sb 8.11279772 51.17803877 113.92394593
Te 10.25835791 49.92387844 115.82375973
Sb 8.10925923 48.67122941 117.72026810
Te 8.10437705 51.14049285 119.40874116
Te 5.95525741 49.88293268 122.12742797
Sb 36.05416729 0.24219288 123.50333725
Te 8.09589922 51.09801212 125.71611210
Sb 5.94736018 49.84568051 127.61362763
Te 36.04628928 0.20495175 128.98953650
Te 5.94348966 47.33516367 131.99771079
Sb 5.93900109 49.80465693 133.68569481
Te 8.08414822 48.55025216 135.58643794
Sb 5.93567295 47.29795663 137.48406889
Te 5.93118655 49.76745136 139.17205243
Te 8.07514703 48.50747014 141.89346480
Sb 8.07066676 50.97696848 143.58144087
Te 10.21580798 49.72256017 145.48219751
Sb 8.06734231 48.47026997 147.37984562
Te 8.06286137 50.93976824 149.06782169
Te 5.91320776 49.68190057 151.78612055
Sb 36.01218066 0.04119764 153.16197430
Te 8.05386847 50.89699032 155.37485260
Sb 5.90540196 49.64469986 157.27249918
Te 5.90092107 52.11419769 158.96047680
Te 5.90151307 47.13417249 161.65647331
Sb 5.89703335 49.60367097 163.34445095
Te 8.04217340 48.34926220 165.24520399
Sb 5.89370823 47.09697207 167.14285899
Te 5.88922909 49.56647094 168.83082256
Te 8.03318689 48.30648657 171.55237137
Sb 8.02870782 50.77598581 173.24029921
Te 10.17384812 49.52157603 175.14116037
Sb 8.02536235 48.26927888 177.03861455
Te 8.02089101 50.73878051 178.72693181
Te 5.87147444 49.48105492 181.44135498
Sb 5.86658129 51.95029644 183.13123028
Te 8.01223134 50.69618193 185.03105153
Sb 5.86375823 49.44391254 186.92992752
Te 5.85862108 51.91322963 188.60515074
Te 6.25689539 49.19080977 191.79210460
Sb 6.24707517 51.65741415 193.47309260
Te 8.39820476 50.40641726 195.36939141
Sb 6.23972350 49.14850035 197.24709907
Te 6.23019953 51.61507508 198.93694143
Te 40.69090781 2.00514612 201.37975790
Bi 38.49107477 0.72491065 203.02568773
Te 38.38907791 3.13531425 205.18669662
Bi 40.67136660 1.85846584 1.53995314
Te 38.58369111 0.64079778 3.42932270
Te 41.09240211 2.07372342 6.47868255
Bi 38.84999758 0.76342110 8.02482099
Te 38.68308640 3.13520379 10.25076085
Bi 40.98276939 1.96877288 12.16051048
Te 38.92852721 0.78159657 14.11988115
Te 41.04684080 1.69079592 17.17337486
Bi 38.80408309 0.37254281 18.71377832
Te 38.62568286 2.74079281 20.94625538
Bi 40.93268952 1.58095413 22.84837612
Te 38.88224221 0.39418022 24.80958496
Te 40.76459702 1.64997197 27.88629720
Bi 38.51546141 0.33872349 29.42457769
Te 38.33216665 2.70108695 31.66118842
Bi 40.64296849 1.54281860 33.56041407
Te 38.59567196 0.35204260 35.52327495
Te 40.47253885 1.60987646 38.60077188
Bi 38.22642153 0.29494672 40.14030913
Te 38.04625081 2.65874479 42.37498091
Bi 40.35422726 1.49753116 44.27755957
Te 38.30138573 0.31238018 46.24151014
Te 40.41256757 1.21926584 49.29709260
Bi 8.06843422 52.00798228 51.14990254
Te 37.99601189 2.26700168 53.06888814
Bi 40.30071383 1.10448535 54.97397610
Te 8.14195930 52.03314839 57.24889216
Te 40.36026782 0.82809668 59.99160546
Bi 8.01267395 51.62222427 61.84408651
Te 37.93761332 1.88043119 63.76464901
Bi 40.24453633 0.72024571 65.66724095
Te 8.09261169 51.63943238 67.93988497
Te 40.24396097 0.49325718 70.70161727
Bi 7.89184663 51.29726067 72.55712411
Te 37.81951456 1.55478284 74.47638330
Bi 40.12176028 0.39077096 76.38347800
Te 7.96907386 51.30465714 78.65791469
Te 40.50511169 0.58203164 81.37637580
Bi 8.18553466 51.40244901 83.29355757
Te 38.17135504 1.69342594 85.17030092
Bi 40.41864133 0.49765848 87.13520895
Te 8.22796816 51.39100746 89.35051779
Te -0.44150630 1.69093561 91.64055609
Bi 40.38853185 0.44224391 93.53150860
Te 40.43723124 2.94044330 95.56098901
Bi -0.41057778 1.67313043 97.63657116
Te 40.34140646 0.38031517 99.35078512
Te 8.13448037 51.25940114 102.37390079
Sb 38.22978448 1.61657038 103.75096018
Te 40.37756363 0.36372750 105.64483247
Sb 8.12021794 51.21856249 107.84428829
Te 38.21632659 1.57618346 109.22379047
Te 40.36317383 0.31786046 111.94721060
Sb 40.35928219 2.78770204 113.63464956
Te -0.43207976 1.55421995 115.50524781
Sb 40.35617130 0.28111516 117.43512801
Te 40.35209141 2.75084783 119.12260626
Te 38.20190469 1.49267590 121.84052791
Sb 38.19748666 3.96221061 123.52844927
Te 40.34258364 2.70777620 125.42930846
Sb 38.19418938 1.45552655 127.32708628
Te 38.18975231 3.92505012 129.01500860
Te 8.08683188 51.05519263 132.02309369
Sb 38.18581209 1.41449379 133.39894121
Te 40.33094841 0.16008252 135.29970863
Sb 8.07903574 51.01799758 137.50949316
Te 38.17801399 1.37729758 138.88534066
Te 40.32196495 0.11731079 141.60674737
Sb 40.31748292 2.58680810 143.29472490
Te -0.47346119 1.35357278 145.16438922
Sb 40.31415759 0.08010924 147.09312336
Te 40.30967589 2.54960679 148.78110110
Te 38.16002389 1.29174043 151.49940129
Sb 38.15554260 3.76123805 153.18737838
Te 40.30068456 2.50683012 155.08813330
Sb 38.15221742 1.25453916 156.98577861
Te 38.14773598 3.72403687 158.67375670
Te 8.04487712 50.85421390 161.68187783
Sb 38.14384872 1.21351008 163.05773517
Te 10.18553803 52.06930394 165.27060809
Sb 8.03706951 50.81701240 167.16825565
Te 38.13604049 1.17630815 168.54410063
Te 10.17653886 52.02652279 171.57775471
Sb 40.27550987 2.38581931 172.95355955
Te -0.51543369 1.15258382 174.82332292
Sb 10.16875168 51.98933069 177.06404497
Te 40.26771292 2.34861846 178.44028391
Te 38.11782201 1.09065768 181.15480246
Sb 38.11375396 3.56039034 182.84384569
Te 40.25838077 2.30570320 184.74465627
Sb 38.10991217 1.05326971 186.64400566
Te 38.10610461 3.52330916 188.31794830
Te 38.49100342 0.79344697 191.49714952
Sb 38.49191252 3.26622164 193.16542511
Te 40.63107829 2.00829919 195.07219600
Sb 38.49262910 0.76164434 196.99046693
Te 38.49344109 3.23422609 198.67337838
Te 38.54066031 5.72730408 201.40205178
Bi 36.34082770 4.44706787 203.04798166
Te 36.23883076 6.85747151 205.20899084
Bi 38.52111951 5.58062326 1.56224733
Te 36.43344426 4.36295479 3.45161673
Te 38.94215502 5.79588088 6.50097616
Bi 36.69975062 4.48557881 8.04711447
Te 36.53283953 6.85736107 10.27305473
Bi 38.83252242 5.69093022 12.18280459
Te 36.77828019 4.50375365 14.14217501
Te 38.89659386 5.41295376 17.19566846
Bi 36.65383581 4.09470040 18.73607151
Te 36.47543589 6.46294988 20.96854913
Bi 38.78244245 5.30311145 22.87067012
Te 36.73199504 4.11633729 24.83187877
Te 38.61434963 5.37212965 27.90859081
Bi 36.36521427 4.06088094 29.44687124
Te 36.18191948 6.42324423 31.68348218
Bi 38.49272148 5.26497590 33.58270757
Te 36.44542514 4.07419973 35.54556855
Te 38.32229161 5.33203420 38.62306535
Bi 36.07617431 4.01710426 40.16260249
Te 35.89600370 6.38090206 42.39727464
Bi 38.20398028 5.21968855 44.29985316
Te 36.15113887 4.03453735 46.26380376
Te 38.26232061 4.94142387 49.31938596
Bi 36.02164099 3.61993906 50.86007293
Te 35.84576492 5.98915902 53.09118173
Bi 38.15046683 4.82664283 54.99626955
Te 36.09516626 3.64510487 56.95906293
Te 38.21002079 4.55025449 60.01389880
Bi 35.96588101 3.23418091 61.55425660
Te 35.78736637 5.60258839 63.78694270
Bi 38.09428933 4.44240297 65.68953464
Te 36.04581875 3.25138885 67.65005585
Te 38.09371356 4.21541482 70.72391112
Bi 35.84505349 2.90921726 72.26729513
Te 35.66926744 5.27694030 74.49867713
Bi 37.97151319 4.11292845 76.40577170
Te 35.92228082 2.91661369 78.36808568
Te 38.35486481 4.30418918 81.39866969
Bi 36.13874162 3.01440565 83.00372856
Te 36.02110813 5.41558342 85.19259497
Bi 38.26839442 4.21981591 87.15750275
Te 36.18117555 3.00296389 89.06068895
Te -2.59175345 5.41309318 91.66285024
Bi 38.23828502 4.16440139 93.55380298
Te 38.28698431 6.66260074 95.58328322
Bi -2.56082481 5.39528787 97.65886509
Te 38.19115944 4.10247235 99.37307918
Te 36.08768743 2.87135782 102.08407210
Sb 36.07953760 5.33872785 103.77325443
Te 38.22731668 4.08588484 105.66712653
Sb 36.07342503 2.83051903 107.55445983
Te 36.06607980 5.29834074 109.24608478
Te 38.21292689 4.04001785 111.96950474
Sb 38.20903528 6.50985940 113.65694412
Te -2.58232669 5.27637730 115.52754189
Sb 38.20592451 4.00327271 117.45742213
Te 38.20184462 6.47300535 119.14490057
Te 36.05165769 5.21483336 121.86282208
Sb 36.04723978 7.68436802 123.55074367
Te 38.19233678 6.42993368 125.45160285
Sb 36.04394250 5.17768388 127.34938048
Te 36.03950545 7.64720742 129.03730295
Te 36.04003879 2.66714909 131.73326510
Sb 36.03556506 5.13665119 133.42123541
Te 38.18070155 3.88223993 135.32200272
Sb 36.03224282 2.62995407 137.21966435
Te 36.02776715 5.09945500 138.90763489
Te 38.17171800 3.83946832 141.62904146
Sb 38.16723607 6.30896545 143.31701908
Te -2.62370815 5.07573025 145.18668343
Sb 38.16391059 3.80226655 147.11541753
Te 38.15942905 6.27176405 148.80339542
Te 36.00977707 5.01389778 151.52169560
Sb 36.00529565 7.48339526 153.20967276
Te 38.15043754 6.22898750 155.11042742
Sb 36.00197037 4.97669660 157.00807269
Te 35.99748918 7.44619409 158.69605095
Te 35.99808413 2.46617049 161.39204908
Sb 35.99360185 4.93566762 163.08002930
Te 38.13874501 3.68126067 164.98077932
Sb 35.99027671 2.42896885 166.87842701
Te 35.98579343 4.89846547 168.56639472
Te 38.12974591 3.63847951 171.28792595
Sb 38.12526287 6.10797659 172.97585370
Te -2.66568071 4.87474134 174.84561703
Sb 38.12195872 3.60128728 176.77421621
Te 38.11746601 6.07077584 178.46257815
Te 35.96757512 4.81281527 181.17709637
Sb 35.96350706 7.28254790 182.86613977
Te 38.10813387 6.02786060 184.76695025
Sb 35.95966530 4.77542708 186.66629966
Te 35.95585783 7.24546653 188.34024254
Te 36.34075652 4.51560457 191.51944331
Sb 36.34166555 6.98837915 193.18771928
Te 38.48083138 5.73045678 195.09448990
Sb 36.34238209 4.48380192 197.01276066
Te 36.34319405 6.95638340 198.69567237
Te 36.39041369 9.44946127 201.42434599
Bi 34.19058092 8.16922545 203.07027572
Te 34.08858398 10.57962885 205.23128507
Bi 36.37087274 9.30278055 1.58454142
Te 34.28319741 8.08511243 3.47391101
Te 36.79190796 9.51803839 6.52327046
Bi 34.54950349 8.20773613 8.06940884
Te 34.38259269 10.57951836 10.29534900
Bi 36.68227572 9.41308725 12.20509850
Te 34.62803355 8.22591080 14.16446896
Te 36.74634688 9.13511141 17.21796250
Bi 34.50358902 7.81685809 18.75836579
Te 34.32518919 10.18510739 20.99084341
Bi 36.63219572 9.02526856 22.89296407
Te 34.58174833 7.83849443 24.85417267
Te 36.46410272 9.09428730 27.93088486
Bi 34.21496709 7.78303842 29.46916505
Te 34.03167265 10.14540152 31.70577641
Bi 36.34247478 8.98713298 33.60500170
Te 34.29517832 7.79635663 35.56786264
Te 36.17204475 9.05419179 38.64535942
Bi 33.92592735 7.73926181 40.18489635
Te 33.74575677 10.10305937 42.41956877
Bi 36.05373334 8.94184558 44.32214729
Te 34.00089203 7.75669445 46.28609769
Te 36.11207356 8.66358121 49.34167970
Bi 33.87139411 7.34209656 50.88236651
Te 33.69551805 9.71131625 53.11347560
Bi 36.00022004 8.54880005 55.01856327
Te 33.94491934 7.36726203 56.98135675
Te 36.05977387 8.27241206 60.03619280
Bi 33.81563400 6.95633865 61.57655053
Te 33.63711938 9.32474569 63.80923676
Bi 35.94404239 8.16456017 65.71182834
Te 33.89557189 6.97354617 67.67234959
Te 35.94346654 7.93757223 70.74620496
Bi 33.69480637 6.63137450 72.28958889
Te 33.51902053 8.99909764 74.52097106
Bi 35.82126617 7.83508555 76.42806572
Te 33.77203375 6.63877093 78.39037962
Te 36.20461789 8.02634670 81.42096387
Bi 33.98849471 6.73656314 83.02602267
Te 33.87086111 9.13774085 85.21488913
Bi 36.11814758 7.94197321 87.17979682
Te 34.03092867 6.72512117 89.08298314
Te -4.74200006 9.13525041 91.68514445
Bi 36.08803807 7.88655864 93.57609707
Te 36.13673748 10.38475796 95.60557775
Bi -4.71107158 9.11744516 97.68115953
Te 36.04091265 7.82462962 99.39537356
Te 33.93744039 6.59351524 102.10636630
Sb 33.92929061 9.06088515 103.79554891
Te 36.07706977 7.80804205 105.68942091
Sb 33.92317827 6.55267639 107.57675410
Te 33.91583301 9.02049810 109.26837935
Te 36.06268008 7.76217512 111.99179904
Sb 36.05878844 10.23201669 113.67923843
Te -4.73257366 8.99853478 115.54983634
Sb 36.05567766 7.72542991 117.47971637
Te 36.05159780 10.19516229 119.16719512
Te 33.90141090 8.93699070 121.88511646
Sb 33.89699300 11.40652523 123.57303814
Te 36.04209015 10.15209083 125.47389711
Sb 33.89369547 8.89984113 127.37167479
Te 33.88925869 11.36936451 129.05959740
Te 33.88979184 6.38930642 131.75555929
Sb 33.88531822 8.85880853 133.44352965
Te 36.03045458 7.60439734 135.34429697
Sb 33.88199597 6.35211137 137.24195851
Te 33.87752032 8.82161219 138.92992924
Te 36.02147106 7.56162573 141.65133574
Sb 36.01698931 10.03112281 143.33931360
Te -4.77395483 8.79788749 145.20897783
Sb 36.01366378 7.52442409 147.13771197
Te 36.00918219 9.99392127 148.82568981
Te 33.85953015 8.73605498 151.54398989
Sb 33.85504895 11.20555256 153.23196703
Te 36.00019072 9.95114476 155.13272197
Sb 33.85172352 8.69885377 157.03036714
Te 33.84724235 11.16835123 158.71834550
Te 33.84783712 6.18832792 161.41434319
Sb 33.84335490 8.65782502 163.10232349
Te 35.98849806 7.40341803 165.00307358
Sb 33.84002961 6.15112638 166.90072101
Te 33.83554674 8.62062276 168.58868902
Te 35.97949906 7.36063684 171.31022009
Sb 35.97501596 9.83013389 172.99814804
Te -4.81592758 8.59689867 174.86791127
Sb 35.97171191 7.32344464 176.79651033
Te 35.96721921 9.79293295 178.48487247
Te 33.81732825 8.53497250 181.19939040
Sb 33.81326036 11.00470509 182.88843392
Te 35.95788711 9.75001775 184.78924451
Sb 33.80941847 8.49758437 186.68859382
Te 33.80561108 10.96762340 188.36253679
Te 34.19050957 8.23776226 191.54173742
Sb 34.19141873 10.71053669 193.21001342
Te 36.33058454 9.45261415 195.11678413
Sb 34.19213503 8.20595934 197.03505469
Te 34.19294725 10.67854059 198.71796664
Te 34.24016688 13.17161864 201.44664033
Bi 32.04033413 11.89138283 203.09257008
Te 31.93833742 14.30178606 205.25357956
Bi 34.22062594 13.02493782 1.60683595
Te 32.13295074 11.80726928 3.49620528
Te 34.64166140 13.24019604 6.54556493
Bi 32.39925703 11.92989352 8.09170291
Te 32.23234617 14.30167570 10.31764365
Bi 34.53202915 13.13524436 12.22739306
Te 32.47778699 11.94806762 14.18676335
Te 34.59610011 12.85726884 17.24025711
Bi 32.35334219 11.53901545 18.78066013
Te 32.17494247 13.90726472 21.01313825
Bi 34.48194899 12.74742582 22.91525858
Te 32.43150170 11.56065114 24.87646721
Te 34.31385581 12.81644476 27.95317929
Bi 32.06472041 11.50519594 29.49145924
Te 31.88142608 13.86755863 31.72807087
Bi 34.19222810 12.70928997 33.62729618
Te 32.14493168 11.51851349 35.59015673
Te 34.02179783 12.77634914 38.66765367
Bi 31.77568044 11.46141925 40.20719058
Te 31.59551011 13.82521642 42.44186330
Bi 33.90348676 12.66400277 44.34444162
Te 31.85064515 11.47885152 46.30839208
Te 33.96182693 12.38573909 49.36397395
Bi 31.72114747 11.06425419 50.90466054
Te 31.54527130 13.43347341 53.13577004
Bi 33.84997342 12.27095719 55.04085753
Te 31.79467279 11.08941902 57.00365087
Te 33.90952717 11.99456973 60.05848707
Bi 31.66538712 10.67849595 61.59884447
Te 31.48687250 13.04690279 63.83153116
Bi 33.79379557 11.88671729 65.73412263
Te 31.74532523 10.69570283 67.69464387
Te 33.79321957 11.65972972 70.76849927
Bi 31.54455939 10.35353205 72.31188304
Te 31.36877346 12.72125486 74.54326556
Bi 33.67101921 11.55724275 76.45035998
Te 31.62178695 10.36092782 78.41267392
Te 34.05437103 11.74850398 81.44325813
Bi 31.83824774 10.45872052 83.04831659
Te 31.72061458 12.85989803 85.23718364
Bi 33.96790073 11.66413030 87.20209137
Te 31.88068186 10.44727854 89.10527755
Te -6.89224708 12.85740756 91.70743884
Bi 33.93779126 11.60871584 93.59839158
Te 33.98649085 14.10691516 95.62787217
Bi -6.86131823 12.83960236 97.70345412
Te 33.89066589 11.54678699 99.41766803
Te 31.78719371 10.31567251 102.12866076
Sb 31.77904394 12.78304242 103.81784312
Te 33.92682296 11.53019944 105.71171545
Sb 31.77293151 10.27483362 107.59904869
Te 31.76558619 12.74265531 109.29067396
Te 33.91243340 11.48433259 112.01409350
Sb 33.90854175 13.95417398 113.70153308
Te -6.88282041 12.72069191 115.57213104
Sb 33.90543088 11.44758720 117.50201094
Te 33.90135122 13.91731955 119.18948980
Te 31.75116407 12.65914791 121.90741088
Sb 31.74674635 15.12868239 123.59533271
Te 33.89184334 13.87424802 125.49619166
Sb 31.74344893 12.62199840 127.39396926
Te 31.73901197 15.09152166 129.08189198
Te 31.73954506 10.11146393 131.77785350
Sb 31.73507138 12.58096578 133.46582419
Te 33.88020780 11.32655466 135.36659134
Sb 31.73174921 10.07426878 137.26425296
Te 31.72727352 12.54376943 138.95222367
Te 33.87122448 11.28378311 141.67363027
Sb 33.86674257 13.75327996 143.36160814
Te -6.92420155 12.52004474 145.23127242
Sb 33.86341701 11.24658118 147.16000634
Te 33.85893557 13.71607839 148.84798441
Te 31.70928338 12.45821234 151.56628422
Sb 31.70480216 14.92770989 153.25426171
Te 33.84994409 13.67330185 155.15501646
Sb 31.70147677 12.42101102 157.05266146
Te 31.69699566 14.89050837 158.74064007
Te 31.69759038 9.91048535 161.43663735
Sb 31.69310823 12.37998218 163.12461788
Te 33.83825134 11.12557529 165.02536800
Sb 31.68978276 9.87328365 166.92301548
Te 31.68530016 12.34278002 168.61098357
Te 33.82925216 11.08279419 171.33251447
Sb 33.82476917 13.55229106 173.02044235
Te -6.96617438 12.31905589 174.89020566
Sb 33.82146508 11.04560175 176.81880478
Te 33.81697231 13.51509025 178.50716687
Te 31.66708150 12.25712987 181.22168471
Sb 31.66301373 14.72686224 182.91072859
Te 33.80764042 13.47217496 184.81153886
Sb 31.65917167 12.21974132 186.71088830
Te 31.65536437 14.68978039 188.38483132
Te 32.04026271 11.95991974 191.56403166
Sb 32.04117197 14.43269407 193.23230789
Te 34.18033774 13.17477143 195.13907851
Sb 32.04188829 11.92811654 197.05734912
Te 32.04270052 14.40069790 198.74026109
Te 32.08992030 16.89377594 201.46893487
Bi 29.89008758 15.61354006 203.11486472
Te 29.78809094 18.02394324 205.27587417
Bi 32.07037957 16.74709493 1.62913094
Te 29.98270389 15.52942656 3.51849992
Te 32.49141480 16.96235322 6.56785969
Bi 30.24901028 15.65205096 8.11399776
Te 30.08209974 18.02383281 10.33993856
Bi 32.38178261 16.85740140 12.24968796
Te 30.32754065 15.67022468 14.20905785
Te 32.44585369 16.57942616 17.26255190
Bi 30.20309554 15.26117294 18.80295495
Te 30.02469597 17.62942179 21.03543320
Bi 32.33170252 16.46958294 22.93755357
Te 30.28125517 15.28280806 24.89876194
Te 32.16360929 16.53860218 27.97547409
Bi 29.91447367 15.22735323 29.51375395
Te 29.73117940 17.58971583 31.75036593
Bi 32.04198148 16.43144704 33.64959090
Te 29.99468519 15.24067026 35.61245153
Te 31.87155119 16.49850678 38.68994845
Bi 29.62543369 15.18357666 40.22948516
Te 29.44526353 17.54737372 42.46415806
Bi 31.75324011 16.38615969 44.36673630
Te 29.70039874 15.20100829 46.33068654
Te 31.81158034 16.10789638 49.38626869
Bi 29.57090066 14.78641144 50.92695503
Te 29.39502471 17.15563036 53.15806483
Bi 31.69972687 15.99311411 55.06315211
Te 29.64442625 14.81157579 57.02594550
Te 31.75928047 15.71672712 60.08078170
Bi 29.51514044 14.40065317 61.62113897
Te 29.33662581 16.76905980 63.85382587
Bi 31.64354885 15.60887432 65.75641721
Te 29.59507848 14.41785988 67.71693862
Te 31.64297287 15.38188707 70.79079379
Bi 29.39431242 14.07568965 72.33417764
Te 29.21852672 16.44341204 74.56556020
Bi 31.52077244 15.27939976 76.47265466
Te 29.47154028 14.08308476 78.43496848
Te 31.90412423 15.47066113 81.46555278
Bi 29.68800093 14.18087762 83.07061143
Te 29.57036778 16.58205517 85.25947842
Bi 31.81765397 15.38628749 87.22438586
Te 29.73043516 14.16943535 89.12757201
Te -9.04249369 16.57956458 91.72973346
Bi 31.78754466 15.33087308 93.62068613
Te 31.83624434 17.82907217 95.65016692
Bi -9.01156480 16.56175927 97.72574889
Te 31.74041914 15.26894386 99.43996264
Te 29.63694706 14.03782956 102.15095523
Sb 29.62879731 16.50519948 103.84013781
Te 31.77657635 15.25235657 105.73401003
Sb 29.62268487 13.99699094 107.62134319
Te 29.61533956 16.46481233 109.31296861
Te 31.76218649 15.20648974 112.03638816
Sb 31.75829522 17.67633111 113.72382774
Te -9.03306695 16.44284892 115.59442568
Sb 31.75518429 15.16974432 117.52430558
Te 31.75110460 17.63947660 119.21178452
Te 29.60091726 16.38130516 121.92970547
Sb 29.59649962 18.85083932 123.61762741
Te 31.74159675 17.59640513 125.51848639
Sb 29.59320218 16.34415558 127.41626402
Te 29.58876554 18.81367877 129.10418678
Te 29.58929836 13.83362097 131.80014774
Sb 29.58482479 16.30312282 133.48811860
Te 31.72996116 15.04871186 135.38888582
Sb 29.58150259 13.79642595 137.28654731
Te 29.57702696 16.26592660 138.97451827
Te 31.72097767 15.00594036 141.69592487
Sb 31.71649600 17.47543723 143.38390281
Te -9.07444833 16.24220177 145.25356713
Sb 31.71317037 14.96873838 147.18230092
Te 31.70868908 17.43823548 148.87027915
Te 29.55903660 16.18036938 151.58857881
Sb 29.55455559 18.64986698 153.27655622
Te 31.69969735 17.39545914 155.17731112
Sb 29.55123020 16.14316805 157.07495615
Te 29.54674907 18.61266536 158.76293460
Te 29.54734366 13.63264259 161.45893180
Sb 29.54286157 16.10213937 163.14691262
Te 31.68800471 14.84773239 165.04766258
Sb 29.53953613 13.59544088 166.94531018
Te 29.53505340 16.06493725 168.63327812
Te 31.67900536 14.80495151 171.35480887
Sb 31.67452266 17.27444826 173.04273697
Te -9.11642117 16.04121296 174.91250022
Sb 31.67121830 14.76775913 176.84109933
Te 31.66672581 17.23724736 178.52946145
Te 29.51683490 15.97928714 181.24397943
Sb 29.51276712 18.44901935 182.93302330
Te 31.65739371 17.19433207 184.83383360
Sb 29.50892517 15.94189841 186.73318291
Te 29.50511780 18.41193720 188.40712606
Te 29.89001594 15.68207709 191.58632635
Sb 29.89092508 18.15485125 193.25460252
Te 32.03009108 16.89692878 195.16137314
Sb 29.89164176 15.65027367 197.07964367
Te 29.89245397 18.12285496 198.76255582
Te 29.93967343 20.61593287 201.49122958
Bi 27.73984085 19.33569704 203.13715963
Te 27.63784450 21.74610039 205.29816905
Bi 29.92013276 20.46925219 1.65142572
Te 27.83245728 19.25158348 3.54079469
Te 30.34116837 20.68451036 6.59015462
Bi 28.09876379 19.37420806 8.13629279
Te 27.93185342 21.74598996 10.36223359
Bi 30.23153628 20.57955849 12.27198292
Te 28.17729418 19.39238161 14.23135303
Te 30.29560720 20.30158342 17.28484697
Bi 28.05284902 18.98333014 18.82524979
Te 27.87444959 21.35157885 21.05772827
Bi 30.18145609 20.19173990 22.95984882
Te 28.13100868 19.00496498 24.92105685
Te 30.01336264 20.26075961 27.99776924
Bi 27.76422718 18.94951040 29.53604911
Te 27.58093306 21.31187313 31.77266116
Bi 29.89173503 20.15360412 33.67188624
Te 27.84443861 18.96282711 35.63474663
Te 29.72130461 20.22066397 38.71224335
Bi 27.47518702 18.90573398 40.25178014
Te 27.29501702 21.26953081 42.48645319
Bi 29.60299361 20.10831678 44.38903139
Te 27.55015219 18.92316511 46.35298140
Te 29.66133378 19.83005383 49.40856378
Bi 27.42065408 18.50856858 50.94925008
Te 27.24477786 20.87778746 53.18036004
Bi 29.54948045 19.71527111 55.08544698
Te 27.49418010 18.53373287 57.04824028
Te 29.60903387 19.43888425 60.10307660
Bi 27.36489375 18.12281033 61.64343378
Te 27.18637925 20.49121675 63.87612084
Bi 29.49330238 19.33103123 65.77871205
Te 27.44483210 18.14001697 67.73923339
Te 29.49272617 19.10404422 70.81308853
Bi 27.24406578 17.79784658 72.35647223
Te 27.06828019 20.16556906 74.58785503
Bi 29.37052589 19.00155675 76.49494937
Te 27.32129367 17.80524182 78.45726322
Te 29.75387753 19.19281831 81.48784735
Bi 27.53775430 17.90303489 83.09290610
Te 27.42012137 20.30421225 85.28177331
Bi 29.66740733 19.10844453 87.24668073
Te 27.58018855 17.89159241 89.14986685
Te -11.19274041 20.30172185 91.75202812
Bi 29.63729796 19.05303003 93.64298090
Te 29.68599764 21.55122916 95.67246167
Bi -11.16181146 20.28391637 97.74804358
Te 29.59017251 18.99110091 99.46225716
Te 27.48670021 17.75998674 102.17324986
Sb 27.47855070 20.22735665 103.86243254
Te 29.62632980 18.97451360 105.75630463
Sb 27.47243822 17.71914807 107.64363782
Te 27.46509297 20.18696920 109.33526328
Te 29.61193993 18.92864678 112.05868283
Sb 29.60804853 21.39848805 113.74612246
Te -11.18331360 20.16500599 115.61672035
Sb 29.60493765 18.89190143 117.54660036
Te 29.60085793 21.36163367 119.23407914
Te 27.45067070 20.10346216 121.95200028
Sb 27.44625298 22.57299625 123.63992218
Te 29.59135016 21.31856218 125.54078110
Sb 27.44295549 20.06631263 127.43855872
Te 27.43851896 22.53583576 129.12648148
Te 27.43905174 17.55577822 131.82244219
Sb 27.43457823 20.02528006 133.51041318
Te 29.57971462 18.77086883 135.41118037
Sb 27.43125586 17.51858316 137.30884195
Te 27.42678039 19.98808350 138.99681289
Te 29.57073107 18.72809740 141.71821945
Sb 29.56624945 21.19759425 143.40619756
Te -11.22469478 19.96435891 145.27586186
Sb 29.56292373 18.69089543 147.20459565
Te 29.55844246 21.16039263 148.89257379
Te 27.40879002 19.90252657 151.61087335
Sb 27.40430903 22.37202391 153.29885080
Te 29.54945075 21.11761620 155.19960560
Sb 27.40098361 19.86532519 157.09725081
Te 27.39650257 22.33482251 158.78522924
Te 27.39709712 17.35479967 161.48122633
Sb 27.39261496 19.82429646 163.16920713
Te 29.53775807 18.56988963 165.06995715
Sb 27.38928943 17.31759793 166.96760460
Te 27.38480669 19.78709433 168.65557274
Te 29.52875876 18.52710870 171.37710346
Sb 29.52427592 20.99660550 173.06503167
Te -11.26666773 19.76337027 174.93479488
Sb 29.52097173 18.48991620 176.86339395
Te 29.51647936 20.95940442 178.55175633
Te 27.36658826 19.70144431 181.26627402
Sb 27.36252060 22.17117623 182.95531790
Te 29.50714728 20.91648896 184.85612849
Sb 27.35867863 19.66405536 186.75547768
Te 27.35487138 22.13409411 188.42942096
Te 27.73976935 19.40423431 191.60862079
Sb 27.74067866 21.87700837 193.27689729
Te 29.87984455 20.61908598 195.18366799
Sb 27.74139502 19.37243098 197.10193821
Te 27.74220742 21.84501203 198.78485062
Te 27.78942694 24.33808999 201.51352434
Bi 25.58959439 23.05785417 203.15945446
Te 25.48759798 25.46825735 205.32046400
Bi 27.76988622 24.19140915 1.67372067
Te 25.68221080 22.97374013 3.56308960
Te 28.19092212 24.40666776 6.61244971
Bi 25.94851776 23.09636528 8.15858771
Te 25.78160700 25.46814690 10.38452858
Bi 28.08129000 24.30171561 12.29427804
Te 26.02704774 23.11453856 14.25364799
Te 28.14536069 24.02374062 17.30714200
Bi 25.90260255 22.70548726 18.84754507
Te 25.72420312 25.07373600 21.08002350
Bi 28.03120957 23.91389701 22.98214375
Te 25.98076232 22.72712215 24.94335206
Te 27.86311635 23.98291678 28.02006445
Bi 25.61398075 22.67166773 29.55834430
Te 25.43068664 25.03403024 31.79495645
Bi 27.74148853 23.87576126 33.69418154
Te 25.69419211 22.68498409 35.65704182
Te 27.57105819 23.94282126 38.73453853
Bi 25.32494069 22.62789115 40.27407516
Te 25.14477066 24.99168788 42.50874833
Bi 27.45274721 23.83047381 44.41132652
Te 25.39990586 22.64532190 46.37527644
Te 27.51108746 23.55221089 49.43085893
Bi 25.27040754 22.23072582 50.97154497
Te 25.09453140 24.59994451 53.20265520
Bi 27.39923396 23.43742815 55.10774212
Te 25.34393357 22.25588954 57.07053539
Te 27.45878728 23.16104139 60.12537170
Bi 25.21464721 21.84496742 61.66572875
Te 25.03613276 24.21337368 63.89841598
Bi 27.34305604 23.05318814 65.80100714
Te 25.29458561 21.86217389 67.76152836
Te 27.34247958 22.82620139 70.83538352
Bi 25.09381920 21.52000375 72.37876711
Te 24.91803367 23.88772616 74.61015000
Bi 27.22027944 22.72371380 76.51724421
Te 25.17104715 21.52739891 78.47955823
Te 27.60363105 22.91497525 81.51014225
Bi 25.38750784 21.62519175 83.11520091
Te 25.26987460 24.02636937 85.30406787
Bi 27.51716087 22.83060170 87.26897556
Te 25.42994205 21.61374951 89.17216145
Te -13.34298670 24.02387882 91.77432295
Bi 27.48705147 22.77518711 93.66527546
Te 27.53575102 25.27338619 95.69475628
Bi -13.31205794 24.00607336 97.77033818
Te 27.43992618 22.71325795 99.48455209
Te 25.33645369 21.48214384 102.19554449
Sb 25.32830422 23.94951362 103.88472713
Te 27.47608310 22.69667074 105.77859937
Sb 25.32219164 21.44130495 107.66593259
Te 25.31484643 23.90912639 109.35755800
Te 27.46169332 22.65080375 112.08097756
Sb 27.45780204 25.12064509 113.76841713
Te -13.33356018 23.88716304 115.63901507
Sb 27.45469113 22.61405856 117.56889490
Te 27.45061138 25.08379064 119.25637387
Te 25.30042409 23.82561918 121.97429495
Sb 25.29600653 26.29515340 123.66221690
Te 27.44110369 25.04071919 125.56307585
Sb 25.29270900 23.78846964 127.46085347
Te 25.28827242 26.25799288 129.14877634
Te 25.28880520 21.27793517 131.84473683
Sb 25.28433173 23.74743692 133.53270774
Te 27.42946804 22.49302593 135.43347512
Sb 25.28100933 21.24074005 137.33113668
Te 25.27653388 23.71024044 139.01910758
Te 27.42048451 22.45025445 141.74051431
Sb 27.41600290 24.91975129 143.42849221
Te -13.37494141 23.68651600 145.29815653
Sb 27.41267735 22.41305258 147.22689042
Te 27.40819596 24.88254968 148.91486856
Te 25.25854353 23.62468362 151.63316803
Sb 25.25406245 26.09418098 153.32114553
Te 27.39920421 24.83977318 155.22190031
Sb 25.25073709 23.58748227 157.11954559
Te 25.24625603 26.05697960 158.80752396
Te 25.24685046 21.07695694 161.50352091
Sb 25.24236843 23.54645361 163.19150177
Te 27.38751151 22.29204664 165.09225183
Sb 25.23904285 21.03975511 166.98989920
Te 25.23456016 23.50925146 168.67786749
Te 27.37851221 22.24926582 171.39939809
Sb 27.37402932 24.71876266 173.08732650
Te -13.41691433 23.48552740 174.95708950
Sb 27.37072513 22.21207336 176.88568877
Te 27.36623272 24.68156140 178.57405104
Te 25.21634173 23.42360133 181.28856890
Sb 25.21227401 25.89333348 182.97761294
Te 27.35690079 24.63864603 184.87842335
Sb 25.20843207 23.38621230 186.77777250
Te 25.20462481 25.85625109 188.45171580
Te 25.58952265 23.12639151 191.63091558
Sb 25.59043217 25.59916543 193.29919223
Te 27.72959801 24.34124299 195.20596282
Sb 25.59114842 23.09458793 197.12423309
Te 25.59196085 25.56716897 198.80714554
Te 25.63918041 28.06024702 201.53581937
Bi 23.43934788 26.78001111 203.18174939
Te 23.33735136 29.19041426 205.34275896
Bi 25.61963977 27.91356621 1.69601563
Te 23.53196435 26.69589732 3.58538469
Te 26.04067559 28.12882475 6.63474480
Bi 23.79827117 26.81852239 8.18088294
Te 23.63136049 29.19030404 10.40682374
Bi 25.93104347 28.02387270 12.31657310
Te 23.87680123 26.83669572 14.27594314
Te 25.99511437 27.74589767 17.32943717
Bi 23.75235621 26.42764431 18.86984027
Te 23.57395662 28.79589307 21.10231853
Bi 25.88096311 27.63605416 23.00443899
Te 23.83051575 26.44927908 24.96564726
Te 25.71286979 27.70507371 28.04235979
Bi 23.46373434 26.39382476 29.58063962
Te 23.28044017 28.75618725 31.81725160
Bi 25.59124222 27.59791835 33.71647681
Te 23.54394586 26.40714110 35.67933706
Te 25.42081189 27.66497831 38.75683395
Bi 23.17469426 26.35004833 40.29637062
Te 22.99452427 28.71384496 42.53104373
Bi 25.30250082 27.55263089 44.43362177
Te 23.24965955 26.36747898 46.39757169
Te 25.36084095 27.27436794 49.45315420
Bi 23.12016107 25.95288292 50.99384017
Te 22.94428491 28.32210144 53.22495041
Bi 25.24898742 27.15958530 55.13003746
Te 23.19368698 25.97804650 57.09283075
Te 25.30854087 26.88319850 60.14766688
Bi 23.06440066 25.56712449 61.68802401
Te 22.88588631 27.93553075 63.92071116
Bi 25.19280956 26.77534514 65.82330237
Te 23.14433922 25.58433070 67.78382363
Te 25.19223305 26.54835857 70.85767854
Bi 22.94357265 25.24216079 72.40106212
Te 22.76778726 27.60988316 74.63244504
Bi 25.07003299 26.44587090 76.53953936
Te 23.02080080 25.24955573 78.50185309
Te 25.45338453 26.63713235 81.53243709
Bi 23.23726130 25.34734881 83.13749565
Te 23.11962823 27.74852618 85.32636287
Bi 25.36691433 26.55275861 87.29127037
Te 23.27969549 25.33590625 89.19445639
Te -15.49323333 27.74603587 91.79661768
Bi 25.33680481 26.49734403 93.68757004
Te 25.38550452 28.99554304 95.71705096
Bi -15.46230444 27.72823039 97.79263283
Te 25.28967956 26.43541500 99.50684678
Te 23.18620710 25.20430102 102.21783928
Sb 23.17805759 27.67167066 103.90702201
Te 25.32583659 26.41882763 105.80089408
Sb 23.17194510 25.16346217 107.68822728
Te 23.16459987 27.63128323 109.37985258
Te 25.31144677 26.37296085 112.10327228
Sb 25.30755554 28.84280212 113.79071187
Te -15.48380665 27.60932010 115.66130978
Sb 25.30444456 26.33621550 117.59118965
Te 25.30036488 28.80594769 119.27866861
Te 23.15017751 27.54777622 121.99658969
Sb 23.14575997 30.01731051 123.68451161
Te 25.29085710 28.76287622 125.58537057
Sb 23.14246239 27.51062676 127.48314822
Te 23.13802587 29.98014989 129.17107103
Te 23.13855864 25.00009222 131.86703154
Sb 23.13408517 27.46959401 133.55500248
Te 25.27922155 26.21518287 135.45576981
Sb 23.13076273 24.96289713 137.35343140
Te 23.12628728 27.43239757 139.04140241
Te 25.27023797 26.17241145 141.76280908
Sb 25.26575641 28.64190835 143.45078701
Te -15.52518798 27.40867310 145.32045127
Sb 25.26243078 26.13520946 147.24918512
Te 25.25794937 28.60470676 148.93716338
Te 23.10829701 27.34684075 151.65546277
Sb 23.10381595 29.81633807 153.34344026
Te 25.24895768 28.56193027 155.24419497
Sb 23.10049055 27.30963932 157.14184012
Te 23.09600943 29.77913659 158.82981880
Te 23.09660373 24.79911392 161.52581565
Sb 23.09212186 27.26861072 163.21379648
Te 25.23726481 26.01420365 165.11454654
Sb 23.08879615 24.76191219 167.01219406
Te 23.08431366 27.23140857 168.70016226
Te 25.22826556 25.97142299 171.42169297
Sb 25.22378285 28.44091963 173.10962129
Te -15.56716078 27.20768445 174.97938433
Sb 25.22047871 25.93423046 176.90798340
Te 25.21598624 28.40371828 178.59634578
Te 23.06609523 27.14575840 181.31086388
Sb 23.06202747 29.61549036 182.99990786
Te 25.20665421 28.36080305 184.90071833
Sb 23.05818551 27.10836926 186.80006734
Te 23.05437821 29.57840807 188.47401063
Te 23.43927616 26.84854871 191.65321052
Sb 23.44018553 29.32132239 193.32148734
Te 25.57935151 28.06339996 195.22825774
Sb 23.44090195 26.81674516 197.14652796
Te 23.44171424 29.28932615 198.82944037
Te 23.48893404 31.78240414 201.55811453
Bi 21.28910136 30.50216817 203.20404427
Te 21.18710510 32.91257121 205.36505391
Bi 23.46939327 31.63572323 1.71831056
Te 21.38171786 30.41805428 3.60767958
Te 23.89042925 31.85098181 6.65703984
Bi 21.64802481 30.54067936 8.20317786
Te 21.48111379 32.91246104 10.42911878
Bi 23.78079678 31.74602976 12.33886815
Te 21.72655477 30.55885281 14.29823821
Te 23.84486788 31.46805463 17.35173231
Bi 21.60210976 30.14980136 18.89213531
Te 21.42371022 32.51805016 21.12461365
Bi 23.73071687 31.35821114 23.02673408
Te 21.68026953 30.17143638 24.98794243
Te 23.56262350 31.42723052 28.06465488
Bi 21.31348787 30.11598177 29.60293492
Te 21.13019366 32.47834447 31.83954675
Bi 23.44099574 31.32007543 33.73877195
Te 21.39369925 30.12929828 35.70163236
Te 23.27056554 31.38713528 38.77912915
Bi 21.02444792 30.07220529 40.31866580
Te 20.84427791 32.43600191 42.55333888
Bi 23.15225449 31.27478794 44.45591699
Te 21.09941300 30.08963600 46.41986696
Te 23.21059449 30.99652488 49.47544939
Bi 20.96991463 29.67504010 51.01613553
Te 20.79403859 32.04425851 53.24724581
Bi 23.09874097 30.88174220 55.15233290
Te 21.04344038 29.70020354 57.11512610
Te 23.15829421 30.60535527 60.16996211
Bi 20.91415415 29.28928165 61.71031947
Te 20.73563992 31.65768805 63.94300618
Bi 23.04256301 30.49750230 65.84559745
Te 20.99409262 29.30648785 67.80611871
Te 23.04198665 30.27051542 70.87997350
Bi 20.79332630 28.96431787 72.42335720
Te 20.61754081 31.33204014 74.65473998
Bi 22.91978654 30.16802804 76.56183438
Te 20.87055434 28.97171275 78.52414821
Te 23.30313806 30.35928911 81.55473202
Bi 21.08701484 29.06950595 83.15979059
Te 20.96938179 31.47068329 85.34865775
Bi 23.21666776 30.27491567 87.31356530
Te 21.12944889 29.05806327 89.21675108
Te -17.64347966 31.46819292 91.81891247
Bi 23.18655847 30.21950104 93.70986482
Te 23.23525794 32.71770016 95.73934576
Bi -17.61255100 31.45038746 97.81492757
Te 23.13943318 30.15757202 99.52914146
Te 21.03596047 28.92645782 102.24013399
Sb 21.02781104 31.39382766 103.92931660
Te 23.17559002 30.14098470 105.82318882
Sb 21.02169854 28.88561900 107.71052197
Te 21.01435341 31.35344043 109.40214743
Te 23.16120026 30.09511784 112.12556700
Sb 23.15730893 32.56495921 113.81300661
Te -17.63405320 31.33147717 115.68360451
Sb 23.15419792 30.05837263 117.61348436
Te 23.15011829 32.52810492 119.30096330
Te 20.99993108 31.26993328 122.01888438
Sb 20.99551349 33.73946759 123.70680628
Te 23.14061056 32.48503328 125.60766532
Sb 20.99221588 31.23278380 127.50544291
Te 20.98777932 33.70230688 129.19336567
Te 20.98831210 28.72224930 131.88932622
Sb 20.98383864 31.19175107 133.57729720
Te 23.12897508 29.93733996 135.47806451
Sb 20.98051623 28.68505412 137.37572616
Te 20.97604070 31.15455451 139.06369711
Te 23.11999144 29.89456846 141.78510369
Sb 23.11550983 32.36406532 143.47308168
Te -17.67543447 31.13083011 145.34274601
Sb 23.11218418 29.85736661 147.27147982
Te 23.10770289 32.32686380 148.95945815
Te 20.95805050 31.06899775 151.67775742
Sb 20.95356938 33.53849513 153.36573497
Te 23.09871115 32.28408726 155.26648970
Sb 20.95024400 31.03179647 157.16413484
Te 20.94576293 33.50129375 158.85211331
Te 20.94635724 28.52127106 161.54811033
Sb 20.94187537 30.99076761 163.23609122
Te 23.08701828 29.73636077 165.13684123
Sb 20.93854966 28.48406912 167.03448866
Te 20.93406712 30.95356552 168.72245697
Te 23.07801911 29.69357998 171.44398767
Sb 23.07353628 32.16307669 173.13191602
Te -17.71740724 30.92984139 175.00167927
Sb 23.07023216 29.65638727 176.93027823
Te 23.06573962 32.12587543 178.61864061
Te 20.91584865 30.86791550 181.33315875
Sb 20.91178089 33.33764742 183.02220268
Te 23.05640761 32.08296000 184.92301309
Sb 20.90793888 30.83052642 186.82236229
Te 20.90413157 33.30056522 188.49630554
Te 21.28902971 30.57070534 191.67550530
Sb 21.28993891 33.04347926 193.34378195
Te 23.42910500 31.78555701 195.25055265
Sb 21.29065568 30.53890195 197.16882291
Te 21.29146789 33.01148300 198.85173543
Te 21.33868749 35.50456110 201.58040954
Bi 19.13885489 34.22432514 203.22633918
Te 19.03685812 36.63472829 205.38734883
Bi 21.31914658 35.35788013 1.74060521
Te 19.23147154 34.14021121 3.62997453
Te 21.74018282 35.57313892 6.67933477
Bi 19.49777837 34.26283626 8.22547281
Te 19.33086719 36.63461806 10.45141361
Bi 21.63055026 35.46818698 12.36116301
Te 19.57630826 34.28100992 14.32053335
Te 21.69462141 35.19021171 17.37402730
Bi 19.45186322 33.87195835 18.91443026
Te 19.27346341 36.24020705 21.14690850
Bi 21.58047040 35.08036830 23.04902905
Te 19.53002305 33.89359355 25.01023746
Te 21.41237699 35.14938760 28.08695000
Bi 19.16324137 33.83813878 29.62522998
Te 18.97994717 36.20050154 31.86184187
Bi 21.29074927 35.04223268 33.76106709
Te 19.24345286 33.85145548 35.72392738
Te 21.12031906 35.10929200 38.80142417
Bi 18.87420154 33.79436203 40.34096095
Te 18.69403143 36.15815891 42.57563385
Bi 21.00200798 34.99694494 44.47821204
Te 18.94916664 33.81179315 46.44216209
Te 21.06034791 34.71868169 49.49774440
Bi 18.81966800 33.39719693 51.03843092
Te 18.64379209 35.76641560 53.26954087
Bi 20.94849430 34.60389927 55.17462795
Te 18.89319376 33.42236071 57.13742133
Te 21.00804783 34.32751240 60.19225700
Bi 18.76390761 33.01143867 61.73261425
Te 18.58539339 35.37984496 63.96530110
Bi 20.89231644 34.21965939 65.86789256
Te 18.84384604 33.02864493 67.82841380
Te 20.89174027 33.99267262 70.90226852
Bi 18.64307992 32.68647499 72.44565200
Te 18.46729449 35.05419728 74.67703496
Bi 20.76954023 33.89018498 76.58412943
Te 18.72030787 32.69386999 78.54644317
Te 21.15289148 34.08144627 81.57702667
Bi 18.93676828 32.79166287 83.18208551
Te 18.81913524 35.19284039 85.37095264
Bi 21.06642141 33.99707251 87.33586022
Te 18.97920247 32.78022034 89.23904602
Te -19.79372638 35.19034986 91.84120724
Bi 21.03631185 33.94165803 93.73215951
Te 21.08501135 36.43985727 95.76164028
Bi -19.76279756 35.17254457 97.83722212
Te 20.98918650 33.87972913 99.55143614
Te 18.88571392 32.64861489 102.26242861
Sb 18.87756448 35.11598480 103.95161127
Te 21.02534346 33.86314164 105.84548347
Sb 18.87145194 32.60777613 107.73281662
Te 18.86410676 35.07559756 109.42444205
Te 21.01095369 33.81727499 112.14786166
Sb 21.00706229 36.28711635 113.83530113
Te -19.78429988 35.05363427 115.70589922
Sb 21.00395135 33.78052958 117.63577907
Te 20.99987161 36.25026201 119.32325795
Te 18.84968450 34.99209034 122.04117910
Sb 18.84526685 37.46162469 123.72910101
Te 20.99036400 36.20719039 125.62996010
Sb 18.84196937 34.95494084 127.52773766
Te 18.83753257 37.42446417 129.21566037
Te 18.83806553 32.44440648 131.91162109
Sb 18.83359201 34.91390813 133.59959213
Te 20.97872848 33.65949697 135.50035921
Sb 18.83026970 32.40721109 137.39802084
Te 18.82579415 34.87671167 139.08599170
Te 20.96974488 33.61672544 141.80739842
Sb 20.96526315 36.08622233 143.49537626
Te -19.82568108 34.85298706 145.36504063
Sb 20.96193761 33.57952369 147.29377451
Te 20.95745635 36.04902092 148.98175262
Te 18.80780388 34.79115483 151.70005208
Sb 18.80332272 37.26065229 153.38802953
Te 20.94846462 36.00624437 155.28878434
Sb 18.79999745 34.75395359 157.18642960
Te 18.79551627 37.22345099 158.87440786
Te 18.79611072 32.24342814 161.57040514
Sb 18.79162872 34.71292478 163.25838588
Te 20.93677180 33.45851781 165.15913591
Sb 18.78830311 32.20622624 167.05678360
Te 18.78382072 34.67572262 168.74475174
Te 20.92777252 33.41573694 171.46628255
Sb 20.92328976 35.88523354 173.15421088
Te -19.86765385 34.65199851 175.02397399
Sb 20.91998565 33.37854448 176.95257294
Te 20.91549304 35.84803241 178.64093526
Te 18.76560207 34.59007250 181.35545345
Sb 18.76153430 37.05980457 183.04449759
Te 20.90616103 35.80511712 184.94530779
Sb 18.75769231 34.55268361 186.84465703
Te 18.75388495 37.02272252 188.51860020
Te 19.13878315 34.29286227 191.69780022
Sb 19.13969255 36.76563637 193.36607671
Te 21.27885842 35.50771394 195.27284743
Sb 19.14040893 34.26105904 197.19111785
Te 19.14122127 36.73364004 198.87403012
Te 19.18844111 39.22671819 201.60270410
Bi 16.98860829 37.94648220 203.24863386
Te 16.88661146 40.35688563 205.40964332
Bi 19.16890010 39.08003737 1.76289977
Te 17.08122491 37.86236862 3.65226926
Te 19.58993605 39.29529557 6.70162932
Bi 17.34753185 37.98499326 8.24776752
Te 17.18062057 40.35677542 10.47370818
Bi 19.48030353 39.19034424 12.38345766
Te 17.42606128 38.00316739 14.34282802
Te 19.54437479 38.91236828 17.39632206
Bi 17.30161658 37.59411529 18.93672512
Te 17.12321688 39.96236426 21.16920329
Bi 19.43022377 38.80252547 23.07132382
Te 17.37977630 37.61575093 25.03253223
Te 19.26213050 38.87154460 28.10924484
Bi 17.01299487 37.56029575 29.64752472
Te 16.82970044 39.92265845 31.88413661
Bi 19.14050256 38.76438982 33.78336185
Te 17.09320622 37.57361287 35.74622220
Te 18.97007252 38.83144900 38.82371904
Bi 16.72395504 37.51651893 40.36325568
Te 16.54378473 39.88031587 42.59792856
Bi 18.85176145 38.71910216 44.50050689
Te 16.79892011 37.53395054 46.46445707
Te 18.91010127 38.44083854 49.52003943
Bi 16.66942152 37.11935395 51.06072591
Te 16.49354567 39.48857281 53.29183560
Bi 18.79824786 38.32605640 55.19692301
Te 16.74294710 37.14451798 57.15971622
Te 18.85780126 38.04966914 60.21455186
Bi 16.61366124 36.73359566 61.75490944
Te 16.43514687 39.10200220 63.98759612
Bi 18.74207000 37.94181667 65.89018737
Te 16.69359961 36.75080217 67.85070848
Te 18.74149388 37.71482962 70.92456346
Bi 16.49283349 36.40863202 72.46794706
Te 16.31704798 38.77635442 74.69932966
Bi 18.61929366 37.61234229 76.60642404
Te 16.57006138 36.41602715 78.56873790
Te 19.00264482 37.80360326 81.59932145
Bi 16.78652176 36.51381994 83.20438042
Te 16.66888865 38.91499753 85.39324732
Bi 18.91617482 37.71922965 87.35815473
Te 16.82895570 36.50237767 89.26134082
Te -21.94397277 38.91250701 91.86350191
Bi 18.88606522 37.66381518 93.75445422
Te 18.93476464 40.16201452 95.78393475
Bi -21.91304417 38.89470165 97.85951654
Te 18.83893995 37.60188645 99.57373053
Te 16.73546759 36.37077196 102.28472327
Sb 16.72731779 38.83814181 103.97390578
Te 18.87509691 37.58529889 105.86777798
Sb 16.72120539 36.32993330 107.75511115
Te 16.71386014 38.79775471 109.44673644
Te 18.86070702 37.53943206 112.17015623
Sb 18.85681566 40.00927344 113.85759564
Te -21.93454644 38.77579152 115.72819366
Sb 18.85370469 37.50268671 117.65807371
Te 18.84962491 39.97241908 119.34555225
Te 16.69943799 38.71424732 122.06347370
Sb 16.69502014 41.18378175 123.75139541
Te 18.84011723 39.92934754 125.65225451
Sb 16.69172282 38.67709796 127.55003220
Te 16.68728597 41.14662139 129.23795478
Te 16.68781897 36.16656337 131.93391584
Sb 16.68334550 38.63606523 133.62188659
Te 18.82848183 37.38165417 135.52265390
Sb 16.68002301 36.12936828 137.42031548
Te 16.67554744 38.59886884 139.10828639
Te 18.81949829 37.33888252 141.82969293
Sb 18.81501640 39.80837950 143.51767075
Te -21.97592781 38.57514423 145.38733506
Sb 18.81169094 37.30168092 147.31606913
Te 18.80720962 39.77117804 149.00404705
Te 16.65755729 38.51331185 151.72234666
Sb 16.65307607 40.98280950 153.41032418
Te 18.79821804 39.72840152 155.31107879
Sb 16.64975084 38.47611074 157.20872425
Te 16.64526970 40.94560814 158.89670254
Te 16.64586417 35.96558516 161.59269969
Sb 16.64138217 38.43508199 163.28068050
Te 18.78652514 37.18067494 165.18143053
Sb 16.63805652 35.92838329 167.07907841
Te 16.63357400 38.39787976 168.76704629
Te 18.77752600 37.13789383 171.48857721
Sb 18.77304314 39.60739065 173.17650541
Te -22.01790036 38.37415554 175.04626861
Sb 18.76973908 37.10070146 176.97486757
Te 18.76524640 39.57018955 178.66322992
Te 16.61535547 38.31222949 181.37774832
Sb 16.61128762 40.78196189 183.06679213
Te 18.75591428 39.52727449 184.96760236
Sb 16.60744553 38.27484069 186.86695172
Te 16.60363823 40.74487988 188.54089484
Te 16.98853675 38.01501941 191.72009491
Sb 16.98944597 40.48779332 193.38837139
Te 19.12861172 39.22987095 195.29514220
Sb 16.99016246 37.98321596 197.21341275
Te 16.99097466 40.45579721 198.89632485
Te 17.03819432 42.94887526 201.62499848
Bi 14.83836165 41.66863939 203.27092834
Te 14.73636463 44.07904279 205.43193771
Bi 17.01865332 42.80219478 1.78519427
Te 14.93097813 41.58452587 3.67456378
Te 17.43968928 43.01745279 6.72392364
Bi 15.19728490 41.70715033 8.27006192
Te 15.03037365 44.07893254 10.49600232
Bi 17.33005661 42.91250158 12.40575225
Te 15.27581437 41.72532470 14.36512256
Te 17.39412805 42.63452510 17.41861646
Bi 15.15137000 41.31627217 18.95901967
Te 14.97297020 43.68452147 21.19149747
Bi 17.27997675 42.52468273 23.09361824
Te 15.22952943 41.33790829 25.05482679
Te 17.11188386 42.59370126 28.13153909
Bi 14.86274824 41.28245269 29.66981933
Te 14.67945369 43.64481568 31.90643081
Bi 16.99025585 42.48654718 33.80565601
Te 14.94295947 41.29577053 35.76851696
Te 16.81982604 42.55360593 38.84601361
Bi 14.57370858 41.23867607 40.38555041
Te 14.39353810 43.60247331 42.62022302
Bi 16.70151470 42.44125951 44.52280150
Te 14.64867317 41.25610812 46.48675175
Te 16.75985463 42.16299538 49.54233390
Bi 14.51917490 40.84151075 51.08302061
Te 14.34329894 43.21072985 53.31413000
Bi 16.64800086 42.04821359 55.21921767
Te 14.59270019 40.86667527 57.18201087
Te 16.70755476 41.77182618 60.23684654
Bi 14.46341459 40.45575280 61.77720411
Te 14.28490038 42.82415952 64.00989050
Bi 16.59182319 41.66397385 65.91248209
Te 14.54335282 40.47295942 67.87300335
Te 16.59124735 41.43698653 70.94685789
Bi 14.34258699 40.13078909 72.49024179
Te 14.16680148 42.49851173 74.72162428
Bi 16.46904717 41.33449947 76.62871890
Te 14.41981469 40.13818440 78.59103250
Te 16.85239829 41.52576059 81.62161614
Bi 14.63627528 40.23597710 83.22667507
Te 14.51864177 42.63715467 85.41554167
Bi 16.76592813 41.44138697 87.38044929
Te 14.67870907 40.22453490 89.28363526
Te -24.09421942 42.63466433 91.88579638
Bi 16.73581850 41.38597246 93.77674871
Te 16.78451796 43.88417169 95.80622928
Bi -24.06329101 42.61685895 97.88181106
Te 16.68869321 41.32404346 99.59602513
Te 14.58522075 40.09292914 102.30701785
Sb 14.57707102 42.56029903 103.99620035
Te 16.72485013 41.30745602 105.89007256
Sb 14.57095864 40.05209044 107.77740562
Te 14.56361340 42.51991213 109.46903077
Te 16.71046035 41.26158918 112.19245068
Sb 16.70656888 43.73143078 113.87988998
Te -24.08479319 42.49794870 115.75048811
Sb 16.70345801 41.22484404 117.68036814
Te 16.69937811 43.69457649 119.36784668
Te 14.54919123 42.43640452 122.08576824
Sb 14.54477339 44.90593909 123.77368967
Te 16.68987043 43.65150489 125.67454898
Sb 14.54147597 42.39925523 127.57232682
Te 14.53703917 44.86877883 129.26024906
Te 14.53757226 39.88872073 131.95621041
Sb 14.53309867 42.35822258 133.64418120
Te 16.67823509 41.10381129 135.54494850
Sb 14.52977637 39.85152542 137.44261009
Te 14.52530072 42.32102608 139.13058084
Te 16.66925154 41.06103960 141.85198735
Sb 16.66476973 43.53053677 143.53996512
Te -24.12617459 42.29730151 145.40962948
Sb 16.66144428 41.02383824 147.33836356
Te 16.65696267 43.49333541 149.02634140
Te 14.50731058 42.23546906 151.74464133
Sb 14.50282934 44.70496666 153.43261852
Te 16.64797132 43.45055887 155.33337339
Sb 14.49950412 42.19826812 157.23101847
Te 14.49502279 44.66776547 158.91899672
Te 14.49561745 39.68774233 161.61499438
Sb 14.49113541 42.15723919 163.30297519
Te 16.63627862 40.90283217 165.20372513
Sb 14.48781014 39.65054043 167.10137264
Te 14.48332725 42.12003682 168.78934083
Te 16.62727938 40.86005102 171.51087186
Sb 16.62279656 43.32954786 173.19879977
Te -24.16814710 42.09631268 175.06856314
Sb 16.61949239 40.82285859 176.99716222
Te 16.61499968 43.29234695 178.68552436
Te 14.46510875 42.03438672 181.40004287
Sb 14.46104074 44.50411907 183.08908646
Te 16.60566762 43.24943183 184.98989685
Sb 14.45719881 41.99699790 186.88924620
Te 14.45339157 44.46703737 188.56318915
Te 14.83829007 41.73717632 191.74238965
Sb 14.83919925 44.20995047 193.41066598
Te 16.97836502 42.95202801 195.31743674
Sb 14.83991576 41.70537294 197.23570751
Te 14.84072797 44.17795446 198.91861938
Te 14.88794728 46.67103234 201.64729285
Bi 12.68811473 45.39079659 203.29322263
Te 12.58611780 47.80120019 205.45423181
Bi 14.86840642 46.52435188 1.80748858
Te 12.78073119 45.30668358 3.69685801
Te 15.28944236 46.73960974 6.74621764
Bi 13.04703792 45.42930745 8.29235625
Te 12.88012668 47.80108987 10.51829642
Bi 15.17980956 46.63465883 12.42804605
Te 13.12556740 45.44748236 14.38741652
Te 15.24388111 46.35668187 17.44091041
Bi 13.00112323 45.03842911 18.98131396
Te 12.82272317 47.40667866 21.21379137
Bi 15.12972991 46.24684005 23.11591244
Te 13.07928233 45.06006580 25.07712078
Te 14.96163703 46.31585825 28.15383311
Bi 12.71250144 45.00460974 29.69211342
Te 12.52920687 47.36697292 31.92872469
Bi 14.84000886 46.20870460 33.82795023
Te 12.79271244 45.01792800 35.79081079
Te 14.66957907 46.27576275 38.86830757
Bi 12.42346162 44.96083289 40.40784479
Te 12.24329105 47.32463061 42.64251694
Bi 14.55126766 46.16341703 44.54509528
Te 12.49842637 44.97826560 46.50904607
Te 14.60960761 45.88515232 49.56462817
Bi 12.36892825 44.56366786 51.10531499
Te 12.19305200 46.93288738 53.33642389
Bi 14.49775409 45.77037111 55.24151183
Te 12.44245327 44.58883312 57.20430525
Te 14.55730803 45.49398309 60.25914076
Bi 12.31316796 44.17790978 61.79949874
Te 12.13465354 46.54631695 64.03218474
Bi 14.44157642 45.38613140 65.93477647
Te 12.39310589 44.19511723 67.89529763
Te 14.44100060 45.15914345 70.96915242
Bi 12.19234036 43.85294605 72.51253637
Te 12.01655461 46.22066900 74.74391844
Bi 14.31880028 45.05665689 76.65101314
Te 12.26956794 43.86034191 78.61332692
Te 14.70215138 45.24791780 81.64391044
Bi 12.48602836 43.95813425 83.24896932
Te 12.36839520 46.35931204 85.43783582
Bi 14.61568132 45.16354425 87.40274359
Te 12.52846228 43.94669238 89.30592961
Te -26.24446633 46.35682156 91.90809077
Bi 14.58557182 45.10813002 93.79904324
Te 14.63427115 47.60632934 95.82852383
Bi -26.21353776 46.33901630 97.90410549
Te 14.53844639 45.04620086 99.61831956
Te 12.43497410 43.81508645 102.32931235
Sb 12.42682425 46.28245635 104.01849472
Te 14.57460342 45.02961342 105.91236689
Sb 12.42071185 43.77424772 107.79970013
Te 12.41336666 46.24206950 109.49132520
Te 14.56021360 44.98374655 112.21474503
Sb 14.55632204 47.45358814 113.90218428
Te -26.23503991 46.22010598 115.77278235
Sb 14.55321130 44.94700141 117.70266242
Te 14.54913122 47.41673382 119.39014092
Te 12.39894449 46.15856192 122.10806252
Sb 12.39452653 48.62809644 123.79598386
Te 14.53962365 47.37366197 125.69684322
Sb 12.39122920 46.12141262 127.59462103
Te 12.38679221 48.59093633 129.28254306
Te 12.38732563 43.61087791 131.97850501
Sb 12.38285198 46.08037980 133.66647567
Te 14.52798829 44.82596857 135.56724307
Sb 12.37952960 43.57368265 137.46490459
Te 12.37505392 46.04318353 139.15287526
Te 14.51900479 44.78319684 141.87428187
Sb 14.51452300 47.25269403 143.56225952
Te -26.27642118 46.01945870 145.43192382
Sb 14.51119740 44.74599515 147.36065780
Te 14.50671584 47.21549268 149.04863574
Te 12.35706390 45.95762628 151.76693568
Sb 12.35258246 48.42712401 153.45491270
Te 14.49772439 47.17271611 155.35566771
Sb 12.34925738 45.92042526 157.25331300
Te 12.34477593 48.38992290 158.94129107
Te 12.34537087 43.40989944 161.63728912
Sb 12.34088871 45.87939627 163.32526961
Te 14.48603186 44.62498940 165.22601957
Sb 12.33756330 43.37269781 167.12366714
Te 12.33308045 45.84219417 168.81163519
Te 14.47703269 44.58220807 171.53316623
Sb 14.47254976 47.05170518 173.22109411
Te -26.31839390 45.81846986 175.09085754
Sb 14.46924545 44.54501580 177.01945670
Te 14.46475292 47.01450442 178.70781862
Te 12.31486180 45.75654380 181.42233722
Sb 12.31079376 48.22627641 183.11138065
Te 14.45542068 46.97158912 185.01219114
Sb 12.30695220 45.71915545 186.91154066
Te 12.30314458 48.18919492 188.58548344
Te 12.68804329 45.45933324 191.76468409
Sb 12.68895252 47.93210763 193.43296024
Te 14.82811831 46.67418528 195.33973099
Sb 12.68966897 45.42753032 197.25800171
Te 12.69048108 47.90011187 198.94091364
Te 12.73770052 50.39318973 201.66958690
Bi 10.53786773 49.11295391 203.31551654
Te 10.43587078 51.52335738 205.47652580
Bi 12.71815948 50.24650939 1.82978243
Te 10.63048445 49.02884081 3.71915197
Te 13.13919522 50.46176693 6.76851157
Bi 10.89679089 49.15146460 8.31464994
Te 10.72987965 51.52324714 10.54059006
Bi 13.02956222 50.35681638 12.45034022
Te 10.97532008 49.16963961 14.40971062
Te 13.09363416 50.07883938 17.46320414
Bi 10.85087624 48.76058621 19.00360753
Te 10.67247602 51.12883597 21.23608476
Bi 12.97948267 49.96899751 23.13820609
Te 10.92903498 48.78222345 25.09941452
Te 12.81139002 50.03801528 28.17612671
Bi 10.56225462 48.72676701 29.71440725
Te 10.37895977 51.08913033 31.95101818
Bi 12.68976175 49.93086198 33.85024373
Te 10.64246533 48.74008569 35.81310460
Te 12.51933214 49.99792014 38.89060132
Bi 10.27321467 48.68299024 40.43013838
Te 10.09304388 51.04678800 42.66481047
Bi 12.40102050 49.88557459 44.56738927
Te 10.34817898 48.70042341 46.53133978
Te 12.45936098 49.60730951 49.58692166
Bi 10.21868119 48.28582491 51.12760873
Te 10.04280506 50.65504471 53.35871755
Bi 12.34750698 49.49252863 55.26380577
Te 10.29220613 48.31099062 57.22659897
Te 12.40706109 49.21614025 60.28143444
Bi 10.16292110 47.90006689 61.82179248
Te 9.98440680 50.26847433 64.05447836
Bi 12.29132951 49.10828879 65.95707046
Te 10.24285875 47.91727476 67.91759147
Te 12.29075379 48.88130063 70.99144629
Bi 10.04209361 47.57510323 72.53483025
Te 9.86630760 49.94282628 74.76621237
Bi 12.16855335 48.77881429 76.67330711
Te 10.11932100 47.58249933 78.63562098
Te 12.55190452 48.97007514 81.66620455
Bi 10.33578150 47.68029163 83.27126364
Te 10.21814831 50.08146958 85.46012985
Bi 12.46543426 48.88570172 87.42503794
Te 10.37821538 47.66884978 89.32822375
Te -28.39471336 50.07897897 91.93038483
Bi 12.43532485 48.83028734 93.82133731
Te 12.48402418 51.32848670 95.85081789
Bi -28.36378476 50.06117383 97.92639989
Te 12.38819920 48.76835846 99.64061382
Te 10.28472733 47.53724359 102.35160656
Sb 10.27657726 50.00461395 104.04078873
Te 12.42435663 48.75177077 105.93466119
Sb 10.27046494 47.49640494 107.82199430
Te 10.26311948 49.96422684 109.51361914
Te 12.40996676 48.70590388 112.23703931
Sb 12.40607499 51.17574548 113.92447835
Te -28.38528684 49.94226352 115.79507648
Sb 12.40296440 48.66915868 117.72495663
Te 12.39888429 51.13889138 119.41243487
Te 10.24869746 49.88071924 122.13035675
Sb 40.34773346 0.24005279 123.50615520
Te 12.38937677 51.09581962 125.71913727
Sb 10.24098219 49.84357007 127.61691509
Te 40.33999933 0.20289274 128.99271443
Te 10.23707877 47.33303517 132.00079947
Sb 10.23260517 49.80253728 133.68876970
Te 12.37774140 48.54812595 135.58953728
Sb 10.22928281 47.29584008 137.48719893
Te 10.22480711 49.76534099 139.17516949
Te 12.36875781 48.50535416 141.89657601
Sb 12.36427595 50.97485147 143.58455365
Te -28.42666825 49.74161610 145.45421803
Sb 12.36095045 48.46815250 147.38295218
Te 12.35646866 50.93765028 149.07092988
Te 10.20681679 49.67978372 151.78923005
Sb 40.30578952 0.03908063 153.16508403
Te 12.34747743 50.89487351 155.37796183
Sb 10.19901030 49.64258256 157.27560713
Te 10.19452900 52.11208031 158.96358520
Te 10.19512403 47.13205663 161.65958351
Sb 10.19064184 49.60155364 163.34756396
Te 12.33578495 48.34714668 165.24831395
Sb 10.18731646 47.09485495 167.14596162
Te 10.18283350 49.56435165 168.83392936
Te 12.32678576 48.30436540 171.55546063
Sb 12.32230285 50.77386260 173.24338830
Te -28.46864078 49.54062732 175.11315168
Sb 12.31899868 48.26717317 177.04175084
Te 12.31450593 50.73666187 178.73011272
Te 10.16461494 49.47870111 181.44463122
Sb 10.16054689 51.94843385 183.13367449
Te 12.30517374 50.69374647 185.03448537
Sb 10.15670517 49.44131300 186.93383481
Te 10.15289740 51.91135274 188.60777727
Te 10.53779645 49.18149033 191.78697841
Sb 10.53870543 51.65426495 193.45525397
Te 12.67787120 50.39634262 195.36202508
Sb 10.53942207 49.14968770 197.28029587
Te 10.54023396 51.62226942 198.96320746
