! Set=C12  delta=delta_+0.002  [SCF from relaxed]
&CONTROL
   calculation      = 'scf'
   verbosity        = 'high'
   restart_mode     = 'from_scratch'
   tstress          = .true.
   tprnfor          = .true.
   outdir           = './'
   etot_conv_thr    = 1e-10
   forc_conv_thr    = 1e-10
   disk_io          = 'none'
   pseudo_dir       = '/home/IITB/multiscale-mechanics/amit.k.singh/PP/PBE_ONCV/'
/
&SYSTEM
   ibrav            = 0
   nat              = 15
   ntyp             = 2
   ecutwfc          = 120.0
   occupations      = 'smearing'
   degauss          = 0.01
   smearing         = 'mp'
   vdw_corr         = 'grimme-d3'
   dftd3_version    = 4
   dftd3_threebody  = .true.
/
&ELECTRONS
   electron_maxstep = 400
   conv_thr         = 1e-12
   mixing_beta      = 0.3
/
&IONS
/
&CELL
/
&FCP
/
&RISM
/
ATOMIC_SPECIES
Bi 208.9804 Bi.UPF
Te 127.6 Te.UPF

K_POINTS automatic
12 12 1  0 0 0

CELL_PARAMETERS angstrom
4.39867437116400 0.00000000000000 0.00000000000000
-2.19933718458000 3.79415670754400 0.00000000000000
0.00000000000000 0.00000000000000 30.24285379700000

ATOMIC_POSITIONS angstrom
Bi  0.0000000000  0.0017682728  12.1009262187
Bi  -0.0000000000  -0.0017682728  18.1419275779
Bi  2.1993371853  1.2664980805  22.1817563508
Bi  2.1993371853  1.2629079210  28.2230346300
Bi  -0.0000000000  2.5312487860  2.0198191667
Bi  -0.0000000000  2.5276586265  8.0610974458
Te  0.0000000000  -0.0042926224  6.3300481068
Te  -0.0000000000  0.0042926224  23.9128056899
Te  2.1993371853  1.2604472030  16.4109072885
Te  2.1993371853  1.2690803567  3.7507878765
Te  -0.0000000000  2.5250763503  26.4920659202
Te  -0.0000000000  2.5337095040  13.8319465082
Te  0.0000000000  0.0000000000  0.0000000000
Te  2.1993371853  1.2647150770  10.0810602180
Te  -0.0000000000  2.5294416300  20.1617935787
