! Set=C12  delta=delta_+0.004  [SCF from relaxed]
&CONTROL
   calculation      = 'scf'
   verbosity        = 'high'
   restart_mode     = 'from_scratch'
   tstress          = .true.
   tprnfor          = .true.
   outdir           = './'
   etot_conv_thr    = 1e-10
   forc_conv_thr    = 1e-10
   disk_io          = 'none'
   pseudo_dir       = '/home/IITB/multiscale-mechanics/amit.k.singh/PP/PBE_ONCV/'
/
&SYSTEM
   ibrav            = 0
   nat              = 15
   ntyp             = 2
   ecutwfc          = 120.0
   occupations      = 'smearing'
   degauss          = 0.01
   smearing         = 'mp'
   vdw_corr         = 'grimme-d3'
   dftd3_version    = 4
   dftd3_threebody  = .true.
/
&ELECTRONS
   electron_maxstep = 400
   conv_thr         = 1e-12
   mixing_beta      = 0.3
/
&IONS
/
&CELL
/
&FCP
/
&RISM
/
ATOMIC_SPECIES
Bi 208.9804 Bi.UPF
Te 127.6 Te.UPF

K_POINTS automatic
12 12 1  0 0 0

CELL_PARAMETERS angstrom
4.40745416032800 0.00000000000000 0.00000000000000
-2.20372707916000 3.78655318708800 0.00000000000000
0.00000000000000 0.00000000000000 30.24285379700000

ATOMIC_POSITIONS angstrom
Bi  -0.0000000000  0.0035645803  12.1009380334
Bi  -0.0000000000  -0.0035645803  18.1419157632
Bi  2.2037270799  1.2657719069  22.1817826189
Bi  2.2037270799  1.2585362652  28.2230289239
Bi  -0.0000000000  2.5280169213  2.0198248728
Bi  -0.0000000000  2.5207812796  8.0610711777
Te  0.0000000000  -0.0086143476  6.3300659998
Te  -0.0000000000  0.0086143476  23.9127877969
Te  2.2037270799  1.2536177647  16.4109523877
Te  2.2037270799  1.2709309438  3.7507252801
Te  -0.0000000000  2.5156222427  26.4921285166
Te  -0.0000000000  2.5329354218  13.8319014090
Te  0.0000000000  0.0000000000  0.0000000000
Te  2.2037270799  1.2621763039  10.0810576752
Te  -0.0000000000  2.5243768826  20.1617961215
