LAMMPS (24 Mar 2022)
Reading data file ...
  triclinic box = (0 0 0) to (4.243875 3.675303 29.878084) with tilt (-2.121937 0 0)
  2 by 2 by 12 MPI processor grid
  reading atoms ...
  15 atoms
  read_data CPU = 0.564 seconds
Use the NEP4 potential with 3 atom types.
    type 0( Bi with Z = 83).
    type 1( Sb with Z = 51).
    type 2( Te with Z = 52).
    has universal ZBL with inner cutoff 1.25 A and outer cutoff 2.5 A.
    radial cutoff = 6 A.
    angular cutoff = 4 A.
    n_max_radial = 6.
    n_max_angular = 6.
    basis_size_radial = 8.
    basis_size_angular = 8.
    l_max_3body = 6.
    l_max_4body = 2.
    l_max_5body = 1.
    ANN = 56-60-1.
    number of neural network parameters = 10441.
    number of descriptor parameters = 1134.
    total number of parameters = 11575.
Neighbor list info ...
  update every 1 steps, delay 0 steps, check yes
  max neighbors/atom: 2000, page size: 100000
  master list distance cutoff = 7
  ghost atom cutoff = 7
  1 neighbor lists, perpetual/occasional/extra = 1 0 0
  (1) pair nep, perpetual
      attributes: full, newton on
      pair build: full/nsq
      stencil: none
      bin: none
Setting up cg style minimization ...
  Unit style    : metal
  Current step  : 0
WARNING: Energy due to 3 extra global DOFs will be included in minimizer energies
Per MPI rank memory allocation (min/avg/max) = 4.116 | 4.116 | 4.116 Mbytes
   Step          Temp          PotEng         Press           Pxx            Pyy            Pzz            Pxy            Pxz            Pyz             Lx             Ly             Lz           Volume    
         0   0             -60.968212     -86.219332     -5.2274322     -5.1175989     -248.31297     -0.048990362    0.042043212    0.047129334    4.243875       3.675303       29.878084      466.02421    
         1   0             -60.968231     -15.213852      51.05233       51.130255     -147.82414     -0.039772621    0.034094826    0.033393664    4.2438661      3.6752954      29.875096      465.97566    
         2   0             -60.968255      20.223284      68.607681      68.647556     -76.585384     -0.028772895    0.024587244    0.016997513    4.2440126      3.6754225      29.872108      465.96127    
         3   0             -60.968297      5.5459869      30.517445      30.519743     -44.399227     -0.017889771    0.015147628    0.00080328934  4.2443927      3.6757519      29.869121      465.99814    
         4   0             -60.96836       28.024126      27.44243       27.441014      29.188936     -0.016757948    0.014080959   -0.00079094874  4.2446843      3.6760044      29.866133      466.01555    
         5   0             -60.968446     -84.547308     -89.476858     -89.47474      -74.690327     -0.017679733    0.014730404    0.00074027542  4.245083       3.6763497      29.869121      466.14974    
         6   0             -60.968488      99.199445      83.695605      83.69622       130.20651     -0.017211459    0.014281738    9.7445972e-05  4.2446587      3.6759822      29.8667        466.01878    
         7   0             -60.968529      8.713229      -1.6509473     -1.6512901      29.441924     -0.01688957     0.013938761   -0.00031132102  4.2448584      3.6761552      29.869688      466.10926    
         8   0             -60.968611      1.1180539     -7.0091023     -7.0085955      17.37186      -0.017049546    0.013956694    6.2454924e-05  4.2448346      3.6761346      29.872676      466.15066    
         9   0             -60.968745      62.877313      51.529901      51.528309      85.573731     -0.016310161    0.013133392   -0.0008286325   4.2446634      3.6759864      29.875664      466.15969    
        10   0             -60.968774     -45.676411     -51.182903     -51.183208     -34.663122     -0.016648625    0.013376635   -0.00027195415  4.2449098      3.6761998      29.878652      466.26044    
        11   0             -60.968837      128.77652      114.21717      114.2179       157.89448     -0.016894206    0.013515185    0.00018205183  4.2444855      3.6758322      29.877372      466.14725    
        12   0             -60.968869      20.927597      12.148847      12.149456      38.484486     -0.016824924    0.0134075      0.00012967549  4.2447301      3.6760441      29.88036       466.24761    
        13   0             -60.968925     -42.34476      -47.68462      -47.68514      -31.66452      -0.016444041    0.013001408   -0.00035129512  4.2448641      3.6761601      29.883348      466.32366    
        14   0             -60.968973      133.62836      119.06605      119.06621      162.75283     -0.016603032    0.013088388   -5.2233356e-05  4.2444397      3.6757926      29.881591      466.20301    
        15   0             -60.969006      26.005792      17.183371      17.183659      43.650344     -0.016607429    0.013046274    3.1082263e-06  4.2446837      3.6760039      29.884579      466.30324    
        16   0             -60.969053     -50.77928      -55.464689     -55.464864     -41.408287     -0.016428027    0.012826817   -0.00019264866  4.2448508      3.6761486      29.887566      466.38657    
        17   0             -60.969096      125.49114      111.56923      111.56921      153.33499     -0.016440384    0.012797275   -0.00012281354  4.2444264      3.6757811      29.885644      466.26333    
        18   0             -60.96913       21.146809      12.784362      12.784424      37.871641     -0.016432965    0.012744967   -8.4854883e-05  4.2446621      3.6759852      29.888632      466.36173    
        19   0             -60.969183     -46.246912     -50.970995     -50.971038     -36.798704     -0.016354839    0.012610176   -0.00012632641  4.2448054      3.6761093      29.891619      466.43984    
        20   0             -60.969225      129.77494      115.83546      115.83544      157.65394     -0.016333906    0.012554734   -0.0001087724   4.244381       3.6757417      29.889717      466.31689    
        21   0             -60.969259      24.021641      15.703821      15.703847      40.657253     -0.016315495    0.01249598    -9.0665147e-05  4.2446201      3.6759488      29.892704      466.41605    
        22   0             -60.969305     -51.73357      -55.98942      -55.989428     -43.22186      -0.016263851    0.012392473   -0.00010249614  4.244784       3.6760908      29.895692      466.4987     
        23   0             -60.969345      124.4684       110.99121      110.99119      151.4228      -0.01623351     0.012335175   -0.0001057059   4.2443596      3.6757233      29.893692      466.37422    
        24   0             -60.969379      21.137471      13.147018      13.147025      37.118371     -0.016213177    0.012275384   -9.1044196e-05  4.2445926      3.675925       29.896679      466.47203    
        25   0             -60.969428     -49.270114     -53.484482     -53.484476     -40.841383     -0.016170952    0.012180192   -8.8737833e-05  4.244743       3.6760552      29.899667      466.5517     
        26   0             -60.969467      126.82477      113.40248      113.40246      153.66938     -0.016138611    0.012124167   -9.7985288e-05  4.2443186      3.6756877      29.897662      466.42713    
        27   0             -60.969501      23.015712      15.095949      15.095951      38.855238     -0.016118414    0.012066737   -8.5672844e-05  4.2445526      3.6758904      29.90065       466.5252     
        28   0             -60.969546     -53.248844     -57.097053     -57.097043     -45.552435     -0.016083664    0.011984064   -7.9306609e-05  4.2447176      3.6760333      29.903638      466.60809    
        29   0             -60.969583      122.96618      109.90956      109.90953      149.07946     -0.016052572    0.011933487   -9.1391446e-05  4.2442932      3.6756658      29.901569      466.48252    
        30   0             -60.969617      21.231961      13.562327      13.562327      36.57123      -0.016032357    0.011876858   -7.9924094e-05  4.2445221      3.675864       29.904557      466.57944    
        31   0             -60.969663     -52.079799     -55.838012     -55.838        -44.563384     -0.015999529    0.011797181   -7.1988253e-05  4.2446796      3.6760004      29.907544      466.66069    
        32   0             -60.969699      124.10911      111.15173      111.1517       150.02389     -0.015969668    0.011750427   -8.5118273e-05  4.2442552      3.6756328      29.90546       466.53486    
        33   0             -60.969733      22.592618      15.003227      15.003225      37.771403     -0.015950395    0.011696306   -7.4153427e-05  4.2444835      3.6758306      29.908448      466.63167    
        34   0             -60.969776     -55.18334      -58.636982     -58.636969     -48.276068     -0.015921639    0.011624714   -6.5507673e-05  4.2446523      3.6759767      29.911436      466.71539    
        35   0             -60.96981       121.08941      108.43935      108.43932      146.38956     -0.015893652    0.011582755   -7.9251887e-05  4.2442279      3.6756092      29.909308      466.58888    
        36   0             -60.969845      21.519127      14.129247      14.129245      36.298887     -0.015874693    0.011529739   -6.865722e-05   4.2444513      3.6758027      29.912296      466.68463    
        37   0             -60.969888     -54.912159     -58.242115     -58.242102     -48.25226      -0.015847227    0.011461014   -5.9959741e-05  4.2446167      3.6759459      29.915284      466.76762    
        38   0             -60.969921      121.37628      108.85723      108.85721      146.41439     -0.015820704    0.011422692   -7.4021927e-05  4.2441923      3.6755784      29.913137      466.64079    
        39   0             -60.969955      22.593541      15.287108      15.287106      37.206409     -0.015802533    0.011371645   -6.3669878e-05  4.2444139      3.6757702      29.916125      466.73612    
        40   0             -60.969995     -57.472481     -60.537099     -60.537085     -51.343259     -0.015777991    0.011308972   -5.478745e-05   4.2445884      3.6759214      29.919112      466.82113    
        41   0             -60.970027      118.87257      106.62392      106.62389      143.36989     -0.015752995    0.011274323   -6.9088676e-05  4.244164       3.6755539      29.916936      466.69384    
        42   0             -60.970062      22.014305      14.872412      14.872409      36.298093     -0.01573516     0.011224345   -5.9007265e-05  4.2443808      3.6757416      29.919924      466.78813    
        43   0             -60.970102     -57.83614      -60.753096     -60.753082     -52.002242     -0.015711905    0.011164599   -5.0230703e-05  4.2445549      3.6758924      29.922912      466.87304    
        44   0             -60.970132      118.53985      106.44575      106.44572      142.72808     -0.015688182    0.011133001   -6.4703437e-05  4.2441305      3.6755249      29.920716      466.74543    
        45   0             -60.970167      22.938705      15.880238      15.880235      37.055641     -0.01567091     0.011084496   -5.4832961e-05  4.2443442      3.6757099      29.923704      466.83905    
        46   0             -60.970204     -60.055843     -62.732721     -62.732707     -54.7021       -0.01564995     0.011029501   -4.5953536e-05  4.2445264      3.6758677      29.926692      466.92574    
        47   0             -60.970234      116.35307      104.50599      104.50597      140.04725     -0.015627383    0.011000661   -6.0569109e-05  4.244102       3.6755001      29.924477      466.79782    
        48   0             -60.970247     -20.271054     -24.974293     -24.974287     -10.864584     -0.015624535    0.010978866   -4.7940684e-05  4.2444191      3.6757748      29.927465      466.91421    
        49   0             -60.970366      142.88764      129.83491      129.83488      168.99312     -0.015548115    0.010832005   -5.8011188e-05  4.2439948      3.6754073      29.928969      466.84431    
        50   0             -60.97039       24.668863      17.803134      17.80313       38.400324     -0.015539628    0.010800077   -4.6715083e-05  4.2442657      3.6756419      29.931957      466.95052    
        51   0             -60.970423     -64.151093     -66.349047     -66.349032     -59.755199     -0.015522771    0.010753538   -3.7658049e-05  4.2444627      3.6758126      29.934945      467.0405     
        52   0             -60.970451      112.27728      100.92766      100.92763      134.97655     -0.015502215    0.010729508   -5.2513043e-05  4.2440384      3.675445       29.932708      466.91222    
        53   0             -60.970487      22.709357      16.065816      16.065813      35.996442     -0.015485918    0.010684106   -4.3401e-05     4.2442373      3.6756173      29.935696      467.00259    
        54   0             -60.97052      -63.15587      -65.287018     -65.287003     -58.893588     -0.015469022    0.010637908   -3.4646891e-05  4.244427       3.6757816      29.938684      467.09097    
        55   0             -60.970547      113.32569      102.0499       102.04988      135.87728     -0.015449391    0.010616054   -4.9603773e-05  4.2440026      3.6754141      29.936425      466.96234    
        56   0             -60.970583      25.398571      18.739417      18.739413      38.716882     -0.015433405    0.010571598   -4.0700594e-05  4.2441975      3.6755829      29.939413      467.05184    
        57   0             -60.970612     -66.779685     -68.608112     -68.608097     -63.122847     -0.015419076    0.010530266   -3.1553904e-05  4.2444033      3.6757611      29.942401      467.14375    
        58   0             -60.97064       109.63529      98.675708      98.675686      131.55449     -0.015399853    0.010509441   -4.656769e-05   4.243979       3.6753936      29.940155      467.01532    
        59   0             -60.970675      23.677031      17.22762       17.227616      36.575858     -0.015384043    0.01046567    -3.7892517e-05  4.2441691      3.6755582      29.943143      467.10376    
        60   0             -60.970705     -66.25704      -67.996442     -67.996427     -62.778251     -0.015369762    0.010424765   -2.8986106e-05  4.2443694      3.6757317      29.946131      467.19447    
        61   0             -60.970731      110.21771      99.353433      99.353411      131.94628     -0.015351334    0.010405801   -4.4084973e-05  4.243945       3.6753642      29.943864      467.06568    
        62   0             -60.970768      26.438402      19.967341      19.967337      39.380528     -0.015335633    0.010362595   -3.5651803e-05  4.2441297      3.6755242      29.946852      467.15296    
        63   0             -60.970794     -69.532022     -70.989241     -70.989225     -66.617599     -0.015323569    0.010325785   -2.6342048e-05  4.2443454      3.6757109      29.949839      467.24705    
        64   0             -60.97082       106.82344      96.258508      96.258487      127.95334     -0.015305281    0.010307246   -4.1472614e-05  4.243921       3.6753434      29.947601      467.1187     
        65   0             -60.970856      24.369878      18.125139      18.125135      36.859362     -0.015289884    0.010264914   -3.3211609e-05  4.2441026      3.6755007      29.950589      467.20529    
        66   0             -60.970883     -68.963448     -70.335362     -70.335347     -66.219633     -0.015277673    0.010228148   -2.416183e-05   4.2443118      3.6756818      29.953577      467.29796    
        67   0             -60.970908      107.4718       96.997503      96.997482      128.42041     -0.015260139    0.010211354   -3.9369057e-05  4.2438874      3.6753143      29.951311      467.16918    
        68   0             -60.970945      27.834756      21.531455      21.53145       40.441363     -0.015244649    0.010169221   -3.1394435e-05  4.2440621      3.6754656      29.954299      467.25424    
        69   0             -60.970968     -72.325781     -73.412847     -73.412831     -70.151666     -0.015234635    0.010136368   -2.1853206e-05  4.2442886      3.6756618      29.957287      467.35073    
        70   0             -60.970994      103.904        93.737274      93.737253      124.23746     -0.015216904    0.010119257   -3.7064092e-05  4.2438642      3.6752942      29.955077      467.22281    
        71   0             -60.971029      24.372765      18.36667       18.366666      36.38496      -0.015201971    0.01007838    -2.9157936e-05  4.2440388      3.6754454      29.958065      467.30785    
        72   0             -60.971054     -71.061676     -72.099383     -72.099367     -68.986278     -0.01519124     0.01004459    -2.0035654e-05  4.2442536      3.6756314      29.961053      467.40177    
        73   0             -60.971078      105.33043      95.213754      95.213733      125.56381     -0.015174436    0.010029575   -3.5330664e-05  4.2438292      3.6752639      29.958792      467.27303    
        74   0             -60.971114      30.135298      23.952905      23.952899      42.500089     -0.015159016    0.0099882356  -2.7828478e-05  4.2439931      3.6754058      29.961779      467.35572    
        75   0             -60.971134     -75.202756     -75.917361     -75.917344     -73.773563     -0.015151022    0.0099591069  -1.794555e-05   4.2442329      3.6756135      29.964767      467.45516    
        76   0             -60.97116       100.77521      91.01737       91.01735       120.29091     -0.015133353    0.0099423237  -3.3194901e-05  4.2438085      3.675246       29.962625      467.32827    
        77   0             -60.971195      22.487224      16.816492      16.816488      33.828694     -0.015119178    0.0099033046  -2.5494074e-05  4.2439804      3.6753948      29.965613      467.41272    
        78   0             -60.971219     -71.536895     -72.323492     -72.323476     -69.963719     -0.015108934    0.0098707687  -1.6562261e-05  4.2441919      3.675578       29.968601      467.50594    
        79   0             -60.971241      104.89414      95.047816      95.047795      124.5868      -0.015092983    0.0098577634  -3.1946428e-05  4.2437675      3.6752105      29.96632       467.37687    
        80   0             -60.971279      36.137644      29.888091      29.888084      48.636758     -0.015077132    0.0098163766  -2.5071474e-05  4.2439156      3.6753387      29.969308      467.45609    
        81   0             -60.971294     -77.730862     -78.091972     -78.091955     -77.00866      -0.015071675    0.0097916174  -1.4544459e-05  4.2441772      3.6755653      29.972296      467.56033    
        82   0             -60.971323      97.549552      88.209624      88.209605      116.22943     -0.015052697    0.0097722099  -2.9736012e-05  4.2437528      3.6751977      29.970362      467.43666    
        83   0             -60.971354      15.009635      9.9626211      9.9626189      25.103666     -0.015040384    0.0097366956  -2.1772896e-05  4.2439357      3.6753561      29.973349      467.52355    
        84   0             -60.971384     -61.90178      -62.947592     -62.947579     -59.81017      -0.015027143    0.0096999117  -1.431628e-05   4.2441046      3.6755024      29.976337      467.60739    
        85   0             -60.971402      114.8269       104.72644      104.72642      135.02784     -0.015012661    0.0096902117  -2.9828833e-05  4.2436802      3.6751349      29.97396       467.47679    
        86   0             -60.971443      59.912755      52.697009      52.696997      74.34426      -0.014994802    0.0096463392  -2.4195245e-05  4.243794       3.6752334      29.976947      467.54845    
        87   0             -60.971452     -69.872811     -70.407214     -70.407199     -68.80402      -0.014993209    0.0096278091  -1.2377274e-05  4.2440958      3.6754948      29.979935      467.66156    
        88   0             -60.971501      101.66254      92.402676      92.402655      120.1823      -0.014964286    0.0095873551  -2.695197e-05   4.2436714      3.6751272      29.979178      467.55623    
        89   0             -60.971524      1.3050492     -2.7711804     -2.7711799      9.4575079     -0.01495654     0.0095593694  -1.7571955e-05  4.2438994      3.6753247      29.982166      467.65307    
        90   0             -60.97159       27.810734      22.479126      22.479121      38.473956     -0.014922738    0.0094917588  -1.8800828e-05  4.2438094      3.6752468      29.985154      467.67985    
        91   0             -60.971606     -78.620617     -78.469789     -78.469772     -78.92229      -0.01491662     0.0094665465  -9.0445407e-06  4.244053       3.6754577      29.988142      467.78014    
        92   0             -60.971631      96.821642      88.033772      88.033752      114.3974      -0.014899437    0.0094512896  -2.4417039e-05  4.2436286      3.6750902      29.98615       467.65553    
        93   0             -60.971664      28.908941      23.652219      23.652214      39.422391     -0.014885645    0.009414478   -1.7774217e-05  4.2437755      3.6752174      29.989138      467.73452    
        94   0             -60.971677     -82.222495     -81.772029     -81.77201      -83.123447     -0.014880759    0.0093911994  -7.5402777e-06  4.2440311      3.6754388      29.992126      467.83746    
        95   0             -60.971703      93.028565      84.559357      84.559338      109.967       -0.014863274    0.0093753485  -2.2884966e-05  4.2436067      3.6750712      29.990202      467.7139     
        96   0             -60.97171      -46.865269     -48.173354     -48.173343     -44.249112     -0.014864147    0.0093607055  -1.0238016e-05  4.2439343      3.6753549      29.99319       467.83271    
        97   0             -60.971811      109.30622      100.22788      100.22786      127.46292     -0.014806574    0.0092592332  -2.2760547e-05  4.2435201      3.6749962      29.996177      467.78799    
        98   0             -60.971828     -2.905801      -6.2356813     -6.2356801      3.7539583     -0.014802095    0.0092366327  -1.2416341e-05  4.2437785      3.67522        29.999165      467.89157    
        99   0             -60.971893      46.969184      41.16462       41.164611      58.578321     -0.014766976    0.0091691302  -1.5553003e-05  4.243632       3.6750931      30.002153      467.90586    
       100   0             -60.971903     -72.846212     -72.512879     -72.512863     -73.512895     -0.014764042    0.0091491937  -5.0241348e-06  4.2439096      3.6753335      30.005141      468.01368    
Loop time of 0.116365 on 48 procs for 100 steps with 15 atoms

97.0% CPU use with 48 MPI tasks x no OpenMP threads

Minimization stats:
  Stopping criterion = max iterations
  Energy initial, next-to-last, final = 
     -60.9682123726746  -60.9718927193395  -60.9719027599995
  Force two-norm initial, final = 0.12039407 0.053666715
  Force max component initial, final = 0.072226657 0.021383008
  Final line search alpha, max atom move = 0.005581239 0.00011934368
  Iterations, force evaluations = 100 100

MPI task timing breakdown:
Section |  min time  |  avg time  |  max time  |%varavg| %total
---------------------------------------------------------------
Pair    | 1.0407e-05 | 0.0012802  | 0.0043553  |   5.3 |  1.10
Neigh   | 0          | 0          | 0          |   0.0 |  0.00
Comm    | 0.0057462  | 0.0086084  | 0.010323   |   1.9 |  7.40
Output  | 0.0035778  | 0.0056424  | 0.10033    |  18.4 |  4.85
Modify  | 0          | 0          | 0          |   0.0 |  0.00
Other   |            | 0.1008     |            |       | 86.65

Nlocal:         0.3125 ave           1 max           0 min
Histogram: 33 0 0 0 0 0 0 0 0 15
Nghost:        159.771 ave         171 max         146 min
Histogram: 12 0 4 8 0 0 0 0 12 12
Neighs:              0 ave           0 max           0 min
Histogram: 48 0 0 0 0 0 0 0 0 0
FullNghs:           13 ave          44 max           0 min
Histogram: 33 0 0 0 0 0 0 0 6 9

Total # of neighbors = 624
Ave neighs/atom = 41.6
Neighbor list builds = 0
Dangerous builds = 0
Displacing atoms ...
System init for write_restart ...
Reading restart file ...
  restart file = 24 Mar 2022, LAMMPS = 24 Mar 2022
  restoring atom style atomic from restart
  triclinic box = (-1.7291498e-05 -1.5255031e-05 -0.063528412) to (4.2438923 3.6753183 29.941612) with tilt (-2.1219546 0 0)
  2 by 2 by 12 MPI processor grid
  pair style nep stores no restart info
  15 atoms
  read_restart CPU = 0.101 seconds
Use the NEP4 potential with 3 atom types.
    type 0( Bi with Z = 83).
    type 1( Sb with Z = 51).
    type 2( Te with Z = 52).
    has universal ZBL with inner cutoff 1.25 A and outer cutoff 2.5 A.
    radial cutoff = 6 A.
    angular cutoff = 4 A.
    n_max_radial = 6.
    n_max_angular = 6.
    basis_size_radial = 8.
    basis_size_angular = 8.
    l_max_3body = 6.
    l_max_4body = 2.
    l_max_5body = 1.
    ANN = 56-60-1.
    number of neural network parameters = 10441.
    number of descriptor parameters = 1134.
    total number of parameters = 11575.
Changing box ...
WARNING: Triclinic box skew is large (../domain.cpp:228)
  triclinic box = (-1.7291498e-05 -1.5255031e-05 -0.063528412) to (4.243888 3.6753183 29.941612) with tilt (-2.1219546 0 0)
  triclinic box = (-1.7291498e-05 -1.5255031e-05 -0.063528412) to (4.243888 3.6753183 29.941612) with tilt (-2.1219525 0 0)
  triclinic box = (-1.7291498e-05 -1.5255031e-05 -0.063528412) to (4.243888 3.6753183 29.941612) with tilt (-2.1219525 0 0)
Neighbor list info ...
  update every 1 steps, delay 0 steps, check yes
  max neighbors/atom: 2000, page size: 100000
  master list distance cutoff = 7
  ghost atom cutoff = 7
  1 neighbor lists, perpetual/occasional/extra = 1 0 0
  (1) pair nep, perpetual
      attributes: full, newton on
      pair build: full/nsq
      stencil: none
      bin: none
Setting up cg style minimization ...
  Unit style    : metal
  Current step  : 100
Per MPI rank memory allocation (min/avg/max) = 4.116 | 4.116 | 4.116 Mbytes
   Step          Temp          PotEng         Press           Pxx            Pyy            Pzz            Pxy            Pxz            Pyz             Lx             Ly             Lz           Volume    
       100   0             -60.971903     -72.433291     -71.755974     -72.310792     -73.233107      0.20237454    -0.54436352    -0.1181026      4.2439053      3.6753335      30.005141      468.01321    
       101   0             -60.972242      703.79885      520.65716      519.96021      1070.7792     -0.50778735     1.1926324     -0.29159346     4.2439053      3.6753335      30.005141      468.01321    
       102   0             -60.972271      683.64466      496.34849      495.69518      1058.8903     -0.287855       0.6669061     -0.23938287     4.2439053      3.6753335      30.005141      468.01321    
       103   0             -60.972271      685.18545      497.49426      496.90832      1061.1538      0.05020909    -0.14987511    -0.15814491     4.2439053      3.6753335      30.005141      468.01321    
       104   0             -60.972271      686.14016      498.20245      497.61971      1062.5983      0.062766841   -0.17908903    -0.15451256     4.2439053      3.6753335      30.005141      468.01321    
       105   0             -60.972271      686.4774       498.46367      497.86702      1063.1015     -0.0094027374  -0.0039893338  -0.17145053     4.2439053      3.6753335      30.005141      468.01321    
       106   0             -60.972271      686.51956      498.49698      497.89808      1063.1636     -0.021231738    0.024755189   -0.17419949     4.2439053      3.6753335      30.005141      468.01321    
       107   0             -60.972271      686.50836      498.48459      497.8897       1063.1508     -0.0026868768  -0.019564279   -0.16945718     4.2439053      3.6753335      30.005141      468.01321    
       108   0             -60.972271      686.55458      498.52623      497.93091      1063.2066     -0.0066173129  -0.0095311536  -0.17009262     4.2439053      3.6753335      30.005141      468.01321    
       109   0             -60.972271      686.47797      498.4637       497.86677      1063.1034     -0.014889289    0.010509675   -0.1720488      4.2439053      3.6753335      30.005141      468.01321    
       110   0             -60.972271      686.48495      498.46969      497.87282      1063.1123     -0.013695674    0.0073410503  -0.17192522     4.2439053      3.6753335      30.005141      468.01321    
       111   0             -60.972271      686.48852      498.47259      497.87571      1063.1173     -0.01293214     0.0052593373  -0.17187846     4.2439053      3.6753335      30.005141      468.01321    
       112   0             -60.972271      686.48545      498.46987      497.87252      1063.114      -0.014018927    0.0075007856  -0.17236247     4.2439053      3.6753335      30.005141      468.01321    
       113   0             -60.972271      686.49365      498.47681      497.87916      1063.125      -0.014886406    0.0094018857  -0.17268378     4.2439053      3.6753335      30.005141      468.01321    
       114   0             -60.972271      686.49165      498.47513      497.87745      1063.1224     -0.015050311    0.0097902652  -0.17272729     4.2439053      3.6753335      30.005141      468.01321    
       115   0             -60.972271      686.48868      498.47267      497.87529      1063.1181     -0.014142668    0.0077952491  -0.17239457     4.2439053      3.6753335      30.005141      468.01321    
       116   0             -60.972271      686.48928      498.47325      497.87619      1063.1184     -0.013337728    0.0060982319  -0.17205801     4.2439053      3.6753335      30.005141      468.01321    
       117   0             -60.972271      686.48705      498.47135      497.8742       1063.1156     -0.013702993    0.0069465691  -0.17216554     4.2439053      3.6753335      30.005141      468.01321    
       118   0             -60.972271      686.48894      498.47292      497.87568      1063.1182     -0.013957827    0.0074991984  -0.17226325     4.2439053      3.6753335      30.005141      468.01321    
       119   0             -60.972271      686.49008      498.47383      497.87647      1063.1199     -0.0141906      0.007953716   -0.17238159     4.2439053      3.6753335      30.005141      468.01321    
       120   0             -60.972271      686.49088      498.47447      497.877        1063.1212     -0.014427718    0.0084365284  -0.17249071     4.2439053      3.6753335      30.005141      468.01321    
       121   0             -60.972271      686.49155      498.47505      497.87751      1063.1221     -0.014651244    0.0089303809  -0.17257118     4.2439053      3.6753335      30.005141      468.01321    
       122   0             -60.972271      686.49071      498.47437      497.87681      1063.1209     -0.014688664    0.0090123368  -0.17258505     4.2439053      3.6753335      30.005141      468.01321    
       123   0             -60.972271      686.49022      498.47398      497.87651      1063.1202     -0.014432171    0.0084402921  -0.17249579     4.2439053      3.6753335      30.005141      468.01321    
       124   0             -60.972271      686.49024      498.474        497.87654      1063.1202     -0.014425361    0.0084402974  -0.17248465     4.2439053      3.6753335      30.005141      468.01321    
       125   0             -60.972271      686.49025      498.47399      497.87655      1063.1202     -0.014407051    0.00841141    -0.17247138     4.2439053      3.6753335      30.005141      468.01321    
       126   0             -60.972271      686.49034      498.47406      497.87663      1063.1203     -0.014364983    0.0083219157  -0.17245424     4.2439053      3.6753335      30.005141      468.01321    
       127   0             -60.972271      686.49036      498.47406      497.87665      1063.1204     -0.014337316    0.0082623976  -0.17244336     4.2439053      3.6753335      30.005141      468.01321    
       128   0             -60.972271      686.49037      498.47407      497.87665      1063.1204     -0.014338045    0.0082658315  -0.17244257     4.2439053      3.6753335      30.005141      468.01321    
       129   0             -60.972271      686.49038      498.47408      497.87666      1063.1204     -0.014343979    0.0082796988  -0.17244427     4.2439053      3.6753335      30.005141      468.01321    
       130   0             -60.972271      686.49034      498.47405      497.87663      1063.1203     -0.014346861    0.0082838063  -0.17244661     4.2439053      3.6753335      30.005141      468.01321    
       131   0             -60.972271      686.49035      498.47406      497.87664      1063.1204     -0.014346603    0.0082826932  -0.17244683     4.2439053      3.6753335      30.005141      468.01321    
       132   0             -60.972271      686.49035      498.47406      497.87664      1063.1204     -0.01434691     0.0082834609  -0.17244689     4.2439053      3.6753335      30.005141      468.01321    
       133   0             -60.972271      686.49035      498.47406      497.87664      1063.1204     -0.014346885    0.0082835562  -0.17244679     4.2439053      3.6753335      30.005141      468.01321    
       134   0             -60.972271      686.49035      498.47406      497.87664      1063.1204     -0.01434644     0.0082826328  -0.1724466      4.2439053      3.6753335      30.005141      468.01321    
       135   0             -60.972271      686.49035      498.47406      497.87664      1063.1204     -0.014346212    0.0082820979  -0.17244653     4.2439053      3.6753335      30.005141      468.01321    
       136   0             -60.972271      686.49035      498.47406      497.87664      1063.1204     -0.014346001    0.0082815957  -0.17244648     4.2439053      3.6753335      30.005141      468.01321    
       137   0             -60.972271      686.49035      498.47406      497.87664      1063.1204     -0.014346001    0.0082815957  -0.17244648     4.2439053      3.6753335      30.005141      468.01321    
Loop time of 0.0098569 on 48 procs for 37 steps with 15 atoms

98.0% CPU use with 48 MPI tasks x no OpenMP threads

Minimization stats:
  Stopping criterion = linesearch alpha is zero
  Energy initial, next-to-last, final = 
     -60.9719026256821  -60.9722713094633  -60.9722713094633
  Force two-norm initial, final = 0.039056189 2.1322566e-10
  Force max component initial, final = 0.015007736 7.2487683e-11
  Final line search alpha, max atom move = 0.5 3.6243841e-11
  Iterations, force evaluations = 37 73

MPI task timing breakdown:
Section |  min time  |  avg time  |  max time  |%varavg| %total
---------------------------------------------------------------
Pair    | 6.898e-06  | 0.00098215 | 0.0034932  |   0.0 |  9.96
Neigh   | 0          | 0          | 0          |   0.0 |  0.00
Comm    | 0.003242   | 0.0055129  | 0.0069286  |   1.8 | 55.93
Output  | 0.0012219  | 0.001253   | 0.0013455  |   0.1 | 12.71
Modify  | 0          | 0          | 0          |   0.0 |  0.00
Other   |            | 0.002109   |            |       | 21.39

Nlocal:         0.3125 ave           1 max           0 min
Histogram: 33 0 0 0 0 0 0 0 0 15
Nghost:        159.771 ave         171 max         145 min
Histogram: 5 7 4 8 0 0 0 0 12 12
Neighs:              0 ave           0 max           0 min
Histogram: 48 0 0 0 0 0 0 0 0 0
FullNghs:         14.5 ave          50 max           0 min
Histogram: 33 0 0 0 0 0 0 0 9 6

Total # of neighbors = 696
Ave neighs/atom = 46.4
Neighbor list builds = 0
Dangerous builds = 0
Reading restart file ...
  restart file = 24 Mar 2022, LAMMPS = 24 Mar 2022
  restoring atom style atomic from restart
  triclinic box = (-1.7291498e-05 -1.5255031e-05 -0.063528412) to (4.2438923 3.6753183 29.941612) with tilt (-2.1219546 0 0)
  2 by 2 by 12 MPI processor grid
  pair style nep stores no restart info
  15 atoms
  read_restart CPU = 0.083 seconds
Use the NEP4 potential with 3 atom types.
    type 0( Bi with Z = 83).
    type 1( Sb with Z = 51).
    type 2( Te with Z = 52).
    has universal ZBL with inner cutoff 1.25 A and outer cutoff 2.5 A.
    radial cutoff = 6 A.
    angular cutoff = 4 A.
    n_max_radial = 6.
    n_max_angular = 6.
    basis_size_radial = 8.
    basis_size_angular = 8.
    l_max_3body = 6.
    l_max_4body = 2.
    l_max_5body = 1.
    ANN = 56-60-1.
    number of neural network parameters = 10441.
    number of descriptor parameters = 1134.
    total number of parameters = 11575.
Changing box ...
  triclinic box = (-1.7291498e-05 -1.5255031e-05 -0.063528412) to (4.2438965 3.6753183 29.941612) with tilt (-2.1219546 0 0)
  triclinic box = (-1.7291498e-05 -1.5255031e-05 -0.063528412) to (4.2438965 3.6753183 29.941612) with tilt (-2.1219567 0 0)
  triclinic box = (-1.7291498e-05 -1.5255031e-05 -0.063528412) to (4.2438965 3.6753183 29.941612) with tilt (-2.1219567 0 0)
Neighbor list info ...
  update every 1 steps, delay 0 steps, check yes
  max neighbors/atom: 2000, page size: 100000
  master list distance cutoff = 7
  ghost atom cutoff = 7
  1 neighbor lists, perpetual/occasional/extra = 1 0 0
  (1) pair nep, perpetual
      attributes: full, newton on
      pair build: full/nsq
      stencil: none
      bin: none
Setting up cg style minimization ...
  Unit style    : metal
  Current step  : 100
Per MPI rank memory allocation (min/avg/max) = 4.116 | 4.116 | 4.116 Mbytes
   Step          Temp          PotEng         Press           Pxx            Pyy            Pzz            Pxy            Pxz            Pyz             Lx             Ly             Lz           Volume    
       100   0             -60.971903     -73.518296     -73.62155      -72.739884     -74.193453      0.20237024    -0.54436051     0.49266573     4.2439138      3.6753335      30.005141      468.01415    
       101   0             -60.972242      702.94423      519.17086      519.56217      1070.0997     -0.50736175     1.1915946     -0.081316551    4.2439138      3.6753335      30.005141      468.01415    
       102   0             -60.972272      682.95804      494.93912      495.42013      1058.5149     -0.28785039     0.66690002     0.028921108    4.2439138      3.6753335      30.005141      468.01415    
       103   0             -60.972272      684.50064      496.04004      496.68101      1060.7809      0.049884109   -0.14909132     0.22345972     4.2439138      3.6753335      30.005141      468.01415    
       104   0             -60.972272      685.45496      496.74982      497.38995      1062.2251      0.062284773   -0.17792557     0.22340437     4.2439138      3.6753335      30.005141      468.01415    
       105   0             -60.972272      685.79563      497.02598      497.62773      1062.7332     -0.0094721071  -0.0038212351   0.17736572     4.2439138      3.6753335      30.005141      468.01415    
       106   0             -60.972272      685.83734      497.06104      497.65627      1062.7947     -0.021145637    0.024547008    0.16959028     4.2439138      3.6753335      30.005141      468.01415    
       107   0             -60.972272      685.82598      497.04764      497.64865      1062.7816     -0.0028326955  -0.01921232     0.17703474     4.2439138      3.6753335      30.005141      468.01415    
       108   0             -60.972272      685.87272      497.09202      497.68801      1062.8381     -0.0066416278  -0.0094722563   0.17139422     4.2439138      3.6753335      30.005141      468.01415    
       109   0             -60.972272      685.79583      497.03055      497.62233      1062.7346     -0.014810157    0.010319428    0.16632616     4.2439138      3.6753335      30.005141      468.01415    
       110   0             -60.972272      685.80268      497.03533      497.62936      1062.7434     -0.013670915    0.0072824541   0.16880507     4.2439138      3.6753335      30.005141      468.01415    
       111   0             -60.972272      685.8064       497.03746      497.63325      1062.7485     -0.012935365    0.0052671402   0.17075323     4.2439138      3.6753335      30.005141      468.01415    
       112   0             -60.972272      685.80324      497.03354      497.63112      1062.7451     -0.014021273    0.0075067949   0.17258339     4.2439138      3.6753335      30.005141      468.01415    
       113   0             -60.972272      685.81146      497.03997      497.63829      1062.7561     -0.014884003    0.0093965143   0.17333188     4.2439138      3.6753335      30.005141      468.01415    
       114   0             -60.972272      685.8095       497.03833      497.63662      1062.7536     -0.015043865    0.0097760852   0.17328301     4.2439138      3.6753335      30.005141      468.01415    
       115   0             -60.972272      685.80641      497.03629      497.63382      1062.7491     -0.014140434    0.007792119    0.17253196     4.2439138      3.6753335      30.005141      468.01415    
       116   0             -60.972272      685.80716      497.0377       497.63415      1062.7496     -0.01334912     0.0061245629   0.17142446     4.2439138      3.6753335      30.005141      468.01415    
       117   0             -60.972272      685.80489      497.03571      497.63219      1062.7468     -0.013705974    0.0069526615   0.17143695     4.2439138      3.6753335      30.005141      468.01415    
       118   0             -60.972272      685.8068       497.03712      497.63386      1062.7494     -0.013965248    0.0075149019   0.17169826     4.2439138      3.6753335      30.005141      468.01415    
       119   0             -60.972272      685.80797      497.03772      497.63501      1062.7512     -0.014201842    0.0079765171   0.17226579     4.2439138      3.6753335      30.005141      468.01415    
       120   0             -60.972272      685.80866      497.03803      497.6357       1062.7523     -0.014416665    0.0084145269   0.17266032     4.2439138      3.6753335      30.005141      468.01415    
       121   0             -60.972272      685.80926      497.03845      497.63626      1062.7531     -0.014615205    0.0088555805   0.17279303     4.2439138      3.6753335      30.005141      468.01415    
       122   0             -60.972272      685.80841      497.03775      497.63558      1062.7519     -0.014651548    0.0089359812   0.17281946     4.2439138      3.6753335      30.005141      468.01415    
       123   0             -60.972272      685.80797      497.03751      497.63521      1062.7512     -0.014411644    0.0083980314   0.17269112     4.2439138      3.6753335      30.005141      468.01415    
       124   0             -60.972272      685.80803      497.0376       497.63521      1062.7513     -0.014411257    0.0084116108   0.17259846     4.2439138      3.6753335      30.005141      468.01415    
       125   0             -60.972272      685.80806      497.03766      497.63519      1062.7513     -0.014398089    0.0083935977   0.17251774     4.2439138      3.6753335      30.005141      468.01415    
       126   0             -60.972272      685.80818      497.03777      497.63526      1062.7515     -0.01436054     0.0083128768   0.17247542     4.2439138      3.6753335      30.005141      468.01415    
       127   0             -60.972272      685.8082       497.03779      497.63526      1062.7515     -0.014339153    0.0082662339   0.17245557     4.2439138      3.6753335      30.005141      468.01415    
       128   0             -60.972272      685.8082       497.0378       497.63526      1062.7515     -0.014341565    0.008273096    0.17244756     4.2439138      3.6753335      30.005141      468.01415    
       129   0             -60.972272      685.80822      497.03781      497.63528      1062.7516     -0.014346979    0.00828588     0.17244634     4.2439138      3.6753335      30.005141      468.01415    
       130   0             -60.972272      685.80818      497.03777      497.63525      1062.7515     -0.014346899    0.0082838977   0.17245783     4.2439138      3.6753335      30.005141      468.01415    
       131   0             -60.972272      685.80819      497.03778      497.63526      1062.7515     -0.014346101    0.0082816584   0.17246029     4.2439138      3.6753335      30.005141      468.01415    
       132   0             -60.972272      685.80819      497.03778      497.63526      1062.7515     -0.014346429    0.0082824611   0.17246003     4.2439138      3.6753335      30.005141      468.01415    
       133   0             -60.972272      685.80819      497.03778      497.63526      1062.7515     -0.014346573    0.008282895    0.17245939     4.2439138      3.6753335      30.005141      468.01415    
       134   0             -60.972272      685.80819      497.03778      497.63526      1062.7515     -0.014346317    0.0082823647   0.17245898     4.2439138      3.6753335      30.005141      468.01415    
       135   0             -60.972272      685.80819      497.03778      497.63526      1062.7515     -0.014346113    0.0082818814   0.17245903     4.2439138      3.6753335      30.005141      468.01415    
       136   0             -60.972272      685.80819      497.03778      497.63526      1062.7515     -0.014345907    0.0082813892   0.17245912     4.2439138      3.6753335      30.005141      468.01415    
       137   0             -60.972272      685.80819      497.03778      497.63526      1062.7515     -0.014346321    0.0082823879   0.17245889     4.2439138      3.6753335      30.005141      468.01415    
       138   0             -60.972272      685.80819      497.03778      497.63526      1062.7515     -0.014346257    0.0082822301   0.17245895     4.2439138      3.6753335      30.005141      468.01415    
       139   0             -60.972272      685.80819      497.03778      497.63526      1062.7515     -0.014346095    0.008281835    0.17245906     4.2439138      3.6753335      30.005141      468.01415    
Loop time of 0.0104783 on 48 procs for 39 steps with 15 atoms

99.2% CPU use with 48 MPI tasks x no OpenMP threads

Minimization stats:
  Stopping criterion = force tolerance
  Energy initial, next-to-last, final = 
     -60.9719025832158  -60.9722716002634  -60.9722716002634
  Force two-norm initial, final = 0.03907603 6.0518393e-11
  Force max component initial, final = 0.015017961 2.7392505e-11
  Final line search alpha, max atom move = 1 2.7392505e-11
  Iterations, force evaluations = 39 76

MPI task timing breakdown:
Section |  min time  |  avg time  |  max time  |%varavg| %total
---------------------------------------------------------------
Pair    | 8.032e-06  | 0.0010338  | 0.0036744  |   4.7 |  9.87
Neigh   | 0          | 0          | 0          |   0.0 |  0.00
Comm    | 0.0032982  | 0.0056956  | 0.007192   |   1.9 | 54.36
Output  | 0.0014355  | 0.0014698  | 0.0015758  |   0.1 | 14.03
Modify  | 0          | 0          | 0          |   0.0 |  0.00
Other   |            | 0.002279   |            |       | 21.75

Nlocal:         0.3125 ave           1 max           0 min
Histogram: 33 0 0 0 0 0 0 0 0 15
Nghost:        159.771 ave         171 max         145 min
Histogram: 5 7 4 8 0 0 0 0 12 12
Neighs:              0 ave           0 max           0 min
Histogram: 48 0 0 0 0 0 0 0 0 0
FullNghs:         14.5 ave          50 max           0 min
Histogram: 33 0 0 0 0 0 0 0 9 6

Total # of neighbors = 696
Ave neighs/atom = 46.4
Neighbor list builds = 0
Dangerous builds = 0
Reading restart file ...
  restart file = 24 Mar 2022, LAMMPS = 24 Mar 2022
  restoring atom style atomic from restart
  triclinic box = (-1.7291498e-05 -1.5255031e-05 -0.063528412) to (4.2438923 3.6753183 29.941612) with tilt (-2.1219546 0 0)
  2 by 2 by 12 MPI processor grid
  pair style nep stores no restart info
  15 atoms
  read_restart CPU = 0.099 seconds
Use the NEP4 potential with 3 atom types.
    type 0( Bi with Z = 83).
    type 1( Sb with Z = 51).
    type 2( Te with Z = 52).
    has universal ZBL with inner cutoff 1.25 A and outer cutoff 2.5 A.
    radial cutoff = 6 A.
    angular cutoff = 4 A.
    n_max_radial = 6.
    n_max_angular = 6.
    basis_size_radial = 8.
    basis_size_angular = 8.
    l_max_3body = 6.
    l_max_4body = 2.
    l_max_5body = 1.
    ANN = 56-60-1.
    number of neural network parameters = 10441.
    number of descriptor parameters = 1134.
    total number of parameters = 11575.
Changing box ...
  triclinic box = (-1.7291498e-05 -1.5255031e-05 -0.063528412) to (4.2438923 3.6753146 29.941612) with tilt (-2.1219546 0 0)
  triclinic box = (-1.7291498e-05 -1.5255031e-05 -0.063528412) to (4.2438923 3.6753146 29.941612) with tilt (-2.1219546 0 0)
Neighbor list info ...
  update every 1 steps, delay 0 steps, check yes
  max neighbors/atom: 2000, page size: 100000
  master list distance cutoff = 7
  ghost atom cutoff = 7
  1 neighbor lists, perpetual/occasional/extra = 1 0 0
  (1) pair nep, perpetual
      attributes: full, newton on
      pair build: full/nsq
      stencil: none
      bin: none
Setting up cg style minimization ...
  Unit style    : metal
  Current step  : 100
Per MPI rank memory allocation (min/avg/max) = 4.116 | 4.116 | 4.116 Mbytes
   Step          Temp          PotEng         Press           Pxx            Pyy            Pzz            Pxy            Pxz            Pyz             Lx             Ly             Lz           Volume    
       100   0             -60.971903     -72.433291     -72.474218     -71.592547     -73.233107      0.20237322    -0.5443623      0.49266957     4.2439096      3.6753298      30.005141      468.01321    
       101   0             -60.972242      703.79857      520.11296      520.50398      1070.7788     -0.50778402     1.1926308     -0.08165782     4.2439096      3.6753298      30.005141      468.01321    
       102   0             -60.972271      683.64448      495.78119      496.2622       1058.8901     -0.28785296     0.66690446     0.028922954    4.2439096      3.6753298      30.005141      468.01321    
       103   0             -60.972271      685.18319      496.87912      497.52001      1061.1504      0.049702513   -0.14865193     0.22335842     4.2439096      3.6753298      30.005141      468.01321    
       104   0             -60.972271      686.13761      497.58912      498.22919      1062.5945      0.062173925   -0.17765731     0.22334594     4.2439096      3.6753298      30.005141      468.01321    
       105   0             -60.972271      686.47737      497.86446      498.4662       1063.1014     -0.0094872439  -0.0037844111   0.17736051     4.2439096      3.6753298      30.005141      468.01321    
       106   0             -60.972271      686.51954      497.89989      498.49513      1063.1636     -0.021147355    0.024551374    0.16959256     4.2439096      3.6753298      30.005141      468.01321    
       107   0             -60.972271      686.50848      497.88673      498.48776      1063.151      -0.0027937855  -0.019306394    0.17706317     4.2439096      3.6753298      30.005141      468.01321    
       108   0             -60.972271      686.55456      497.93056      498.52653      1063.2066     -0.0067099179  -0.0093077049   0.17136319     4.2439096      3.6753298      30.005141      468.01321    
       109   0             -60.972271      686.47799      497.86936      498.46112      1063.1035     -0.014874964    0.010474259    0.16630515     4.2439096      3.6753298      30.005141      468.01321    
       110   0             -60.972271      686.48506      497.87433      498.46836      1063.1125     -0.013680424    0.0073034675   0.16881728     4.2439096      3.6753298      30.005141      468.01321    
       111   0             -60.972271      686.48852      497.87624      498.47204      1063.1173     -0.012931476    0.0052569254   0.17076585     4.2439096      3.6753298      30.005141      468.01321    
       112   0             -60.972271      686.4855       497.87245      498.47003      1063.114      -0.014032169    0.0075312995   0.17259376     4.2439096      3.6753298      30.005141      468.01321    
       113   0             -60.972271      686.49363      497.87881      498.47713      1063.125      -0.014887112    0.0094049875   0.17332885     4.2439096      3.6753298      30.005141      468.01321    
       114   0             -60.972271      686.49161      497.87711      498.4754       1063.1223     -0.015040858    0.0097690371   0.17328826     4.2439096      3.6753298      30.005141      468.01321    
       115   0             -60.972271      686.48874      497.87525      498.4728       1063.1182     -0.01413814     0.0077850396   0.17254811     4.2439096      3.6753298      30.005141      468.01321    
       116   0             -60.972271      686.4893       497.8765       498.47296      1063.1184     -0.013351714    0.0061295678   0.17143613     4.2439096      3.6753298      30.005141      468.01321    
       117   0             -60.972271      686.4871       497.87456      498.47105      1063.1157     -0.013715366    0.006973663    0.17144743     4.2439096      3.6753298      30.005141      468.01321    
       118   0             -60.972271      686.489        497.87597      498.47272      1063.1183     -0.013966251    0.0075169896   0.17170488     4.2439096      3.6753298      30.005141      468.01321    
       119   0             -60.972271      686.49011      497.87653      498.47381      1063.12       -0.014198928    0.0079705089   0.17226587     4.2439096      3.6753298      30.005141      468.01321    
       120   0             -60.972271      686.49083      497.87686      498.47454      1063.1211     -0.014417015    0.008415105    0.17266681     4.2439096      3.6753298      30.005141      468.01321    
       121   0             -60.972271      686.49141      497.87727      498.47508      1063.1219     -0.014620935    0.00886818     0.17280265     4.2439096      3.6753298      30.005141      468.01321    
       122   0             -60.972271      686.49056      497.87656      498.4744       1063.1207     -0.014650688    0.0089336174   0.17282675     4.2439096      3.6753298      30.005141      468.01321    
       123   0             -60.972271      686.49015      497.87635      498.47405      1063.1201     -0.014409592    0.008393454    0.17269484     4.2439096      3.6753298      30.005141      468.01321    
       124   0             -60.972271      686.49019      497.87643      498.47404      1063.1201     -0.014409926    0.0084087956   0.17260164     4.2439096      3.6753298      30.005141      468.01321    
       125   0             -60.972271      686.49023      497.87648      498.47402      1063.1202     -0.014397712    0.008392933    0.17252137     4.2439096      3.6753298      30.005141      468.01321    
       126   0             -60.972271      686.49034      497.8766       498.47409      1063.1203     -0.014359835    0.0083113456   0.17247971     4.2439096      3.6753298      30.005141      468.01321    
       127   0             -60.972271      686.49036      497.87662      498.47409      1063.1204     -0.014339241    0.0082664632   0.17246041     4.2439096      3.6753298      30.005141      468.01321    
       128   0             -60.972271      686.49037      497.87663      498.4741       1063.1204     -0.014341669    0.0082733776   0.1724523      4.2439096      3.6753298      30.005141      468.01321    
       129   0             -60.972271      686.49038      497.87664      498.47411      1063.1204     -0.014347082    0.0082861606   0.17245107     4.2439096      3.6753298      30.005141      468.01321    
       130   0             -60.972271      686.49034      497.8766       498.47408      1063.1203     -0.014346917    0.00828395     0.17246275     4.2439096      3.6753298      30.005141      468.01321    
       131   0             -60.972271      686.49035      497.87661      498.47409      1063.1204     -0.014346201    0.0082819226   0.17246507     4.2439096      3.6753298      30.005141      468.01321    
       132   0             -60.972271      686.49035      497.87661      498.47409      1063.1204     -0.014346545    0.0082827708   0.17246477     4.2439096      3.6753298      30.005141      468.01321    
       133   0             -60.972271      686.49035      497.87661      498.47409      1063.1204     -0.014346678    0.0082831899   0.17246406     4.2439096      3.6753298      30.005141      468.01321    
       134   0             -60.972271      686.49035      497.87661      498.47409      1063.1204     -0.014346386    0.008282577    0.17246363     4.2439096      3.6753298      30.005141      468.01321    
       135   0             -60.972271      686.49035      497.87661      498.47409      1063.1204     -0.014346179    0.0082820876   0.17246369     4.2439096      3.6753298      30.005141      468.01321    
       136   0             -60.972271      686.49035      497.87661      498.47409      1063.1204     -0.014345984    0.0082816232   0.17246376     4.2439096      3.6753298      30.005141      468.01321    
       137   0             -60.972271      686.49035      497.87661      498.47409      1063.1204     -0.014345984    0.0082816232   0.17246376     4.2439096      3.6753298      30.005141      468.01321    
Loop time of 0.00958785 on 48 procs for 37 steps with 15 atoms

99.4% CPU use with 48 MPI tasks x no OpenMP threads

Minimization stats:
  Stopping criterion = linesearch alpha is zero
  Energy initial, next-to-last, final = 
     -60.9719026256344  -60.9722713094633  -60.9722713094633
  Force two-norm initial, final = 0.039056194 2.1217536e-10
  Force max component initial, final = 0.015007736 7.2284012e-11
  Final line search alpha, max atom move = 0.5 3.6142006e-11
  Iterations, force evaluations = 37 73

MPI task timing breakdown:
Section |  min time  |  avg time  |  max time  |%varavg| %total
---------------------------------------------------------------
Pair    | 7.153e-06  | 0.00094923 | 0.0033016  |   0.0 |  9.90
Neigh   | 0          | 0          | 0          |   0.0 |  0.00
Comm    | 0.0030981  | 0.0052215  | 0.0064992  |   1.8 | 54.46
Output  | 0.0012828  | 0.0013135  | 0.0014159  |   0.1 | 13.70
Modify  | 0          | 0          | 0          |   0.0 |  0.00
Other   |            | 0.002104   |            |       | 21.94

Nlocal:         0.3125 ave           1 max           0 min
Histogram: 33 0 0 0 0 0 0 0 0 15
Nghost:        159.771 ave         171 max         145 min
Histogram: 5 7 4 8 0 0 0 0 12 12
Neighs:              0 ave           0 max           0 min
Histogram: 48 0 0 0 0 0 0 0 0 0
FullNghs:         14.5 ave          50 max           0 min
Histogram: 33 0 0 0 0 0 0 0 9 6

Total # of neighbors = 696
Ave neighs/atom = 46.4
Neighbor list builds = 0
Dangerous builds = 0
Reading restart file ...
  restart file = 24 Mar 2022, LAMMPS = 24 Mar 2022
  restoring atom style atomic from restart
  triclinic box = (-1.7291498e-05 -1.5255031e-05 -0.063528412) to (4.2438923 3.6753183 29.941612) with tilt (-2.1219546 0 0)
  2 by 2 by 12 MPI processor grid
  pair style nep stores no restart info
  15 atoms
  read_restart CPU = 0.002 seconds
Use the NEP4 potential with 3 atom types.
    type 0( Bi with Z = 83).
    type 1( Sb with Z = 51).
    type 2( Te with Z = 52).
    has universal ZBL with inner cutoff 1.25 A and outer cutoff 2.5 A.
    radial cutoff = 6 A.
    angular cutoff = 4 A.
    n_max_radial = 6.
    n_max_angular = 6.
    basis_size_radial = 8.
    basis_size_angular = 8.
    l_max_3body = 6.
    l_max_4body = 2.
    l_max_5body = 1.
    ANN = 56-60-1.
    number of neural network parameters = 10441.
    number of descriptor parameters = 1134.
    total number of parameters = 11575.
Changing box ...
  triclinic box = (-1.7291498e-05 -1.5255031e-05 -0.063528412) to (4.2438923 3.6753219 29.941612) with tilt (-2.1219546 0 0)
  triclinic box = (-1.7291498e-05 -1.5255031e-05 -0.063528412) to (4.2438923 3.6753219 29.941612) with tilt (-2.1219546 0 0)
Neighbor list info ...
  update every 1 steps, delay 0 steps, check yes
  max neighbors/atom: 2000, page size: 100000
  master list distance cutoff = 7
  ghost atom cutoff = 7
  1 neighbor lists, perpetual/occasional/extra = 1 0 0
  (1) pair nep, perpetual
      attributes: full, newton on
      pair build: full/nsq
      stencil: none
      bin: none
Setting up cg style minimization ...
  Unit style    : metal
  Current step  : 100
Per MPI rank memory allocation (min/avg/max) = 4.116 | 4.116 | 4.116 Mbytes
   Step          Temp          PotEng         Press           Pxx            Pyy            Pzz            Pxy            Pxz            Pyz             Lx             Ly             Lz           Volume    
       100   0             -60.971903     -73.518296     -72.903309     -73.458126     -74.193454      0.20237157    -0.54436174    -0.11810004     4.2439096      3.6753372      30.005141      468.01415    
       101   0             -60.972242      702.94451      519.71516      519.01829      1070.1001     -0.50736509     1.1915963     -0.29148788     4.2439096      3.6753372      30.005141      468.01415    
       102   0             -60.972272      682.95821      495.50641      494.85311      1058.5151     -0.28785243     0.66690165    -0.23937903     4.2439096      3.6753372      30.005141      468.01415    
       103   0             -60.972272      684.5029       496.65521      496.0693       1060.7842      0.050391543   -0.15031656    -0.15809704     4.2439096      3.6753372      30.005141      468.01415    
       104   0             -60.972272      685.45752      497.36317      496.78046      1062.2289      0.06287792    -0.17935786    -0.15448131     4.2439096      3.6753372      30.005141      468.01415    
       105   0             -60.972272      685.79566      497.6252       497.02855      1062.7332     -0.0093876393  -0.0040260648  -0.17144247     4.2439096      3.6753372      30.005141      468.01415    
       106   0             -60.972272      685.83736      497.65812      497.05922      1062.7947     -0.021230045    0.024750885   -0.17419465     4.2439096      3.6753372      30.005141      468.01415    
       107   0             -60.972272      685.82586      497.64549      497.0506       1062.7815     -0.0027258334  -0.019470092   -0.16946166     4.2439096      3.6753372      30.005141      468.01415    
       108   0             -60.972272      685.87274      497.68769      497.09239      1062.8382     -0.0065480919  -0.009697938   -0.17007069     4.2439096      3.6753372      30.005141      468.01415    
       109   0             -60.972272      685.79582      497.62488      497.02797      1062.7346     -0.014823611    0.010352757   -0.17202701     4.2439096      3.6753372      30.005141      468.01415    
       110   0             -60.972272      685.80257      497.63069      497.03382      1062.7432     -0.013685916    0.0073194481  -0.17191686     4.2439096      3.6753372      30.005141      468.01415    
       111   0             -60.972272      685.8064       497.63379      497.03692      1062.7485     -0.012936043    0.005269597   -0.17187411     4.2439096      3.6753372      30.005141      468.01415    
       112   0             -60.972272      685.80319      497.63096      497.03362      1062.745      -0.014008046    0.0074763359  -0.17235411     4.2439096      3.6753372      30.005141      468.01415    
       113   0             -60.972272      685.81147      497.63797      497.04032      1062.7561     -0.014883289    0.0093933676  -0.17267901     4.2439096      3.6753372      30.005141      468.01415    
       114   0             -60.972272      685.80955      497.63635      497.03867      1062.7536     -0.01505333     0.0097973434  -0.17272355     4.2439096      3.6753372      30.005141      468.01415    
       115   0             -60.972272      685.80635      497.6337       497.03632      1062.749      -0.014145108    0.0078026903  -0.17238959     4.2439096      3.6753372      30.005141      468.01415    
       116   0             -60.972272      685.80714      497.63444      497.03739      1062.7496     -0.013335133    0.0060932489  -0.17205188     4.2439096      3.6753372      30.005141      468.01415    
       117   0             -60.972272      685.80484      497.63248      497.03534      1062.7467     -0.013693505    0.0069253656  -0.17215753     4.2439096      3.6753372      30.005141      468.01415    
       118   0             -60.972272      685.80674      497.63406      497.03683      1062.7493     -0.013956751    0.0074969491  -0.17225807     4.2439096      3.6753372      30.005141      468.01415    
       119   0             -60.972272      685.80794      497.63502      497.03766      1062.7511     -0.014193648    0.0079599833  -0.17237828     4.2439096      3.6753372      30.005141      468.01415    
       120   0             -60.972272      685.80871      497.63563      497.03817      1062.7523     -0.014427131    0.0084354806  -0.1724857      4.2439096      3.6753372      30.005141      468.01415    
       121   0             -60.972272      685.80939      497.63622      497.03869      1062.7533     -0.014644415    0.0089154959  -0.17256397     4.2439096      3.6753372      30.005141      468.01415    
       122   0             -60.972272      685.80856      497.63555      497.038        1062.7521     -0.01468869     0.009012947   -0.17258011     4.2439096      3.6753372      30.005141      468.01415    
       123   0             -60.972272      685.80804      497.63514      497.03768      1062.7513     -0.01443402     0.00844445    -0.17249177     4.2439096      3.6753372      30.005141      468.01415    
       124   0             -60.972272      685.80808      497.63517      497.03772      1062.7514     -0.014426623    0.008442949   -0.17248053     4.2439096      3.6753372      30.005141      468.01415    
       125   0             -60.972272      685.80808      497.63516      497.03772      1062.7514     -0.014407511    0.0084122357  -0.172467       4.2439096      3.6753372      30.005141      468.01415    
       126   0             -60.972272      685.80818      497.63523      497.0378       1062.7515     -0.014365717    0.0083234841  -0.17244988     4.2439096      3.6753372      30.005141      468.01415    
       127   0             -60.972272      685.8082       497.63523      497.03782      1062.7515     -0.014337171    0.008262054   -0.17243865     4.2439096      3.6753372      30.005141      468.01415    
       128   0             -60.972272      685.8082       497.63524      497.03782      1062.7515     -0.014337903    0.0082654709  -0.17243788     4.2439096      3.6753372      30.005141      468.01415    
       129   0             -60.972272      685.80822      497.63525      497.03784      1062.7516     -0.014343837    0.0082793367  -0.17243958     4.2439096      3.6753372      30.005141      468.01415    
       130   0             -60.972272      685.80818      497.63522      497.0378       1062.7515     -0.014346783    0.0082836298  -0.17244192     4.2439096      3.6753372      30.005141      468.01415    
       131   0             -60.972272      685.80819      497.63523      497.03781      1062.7515     -0.014346468    0.0082823562  -0.17244214     4.2439096      3.6753372      30.005141      468.01415    
       132   0             -60.972272      685.80819      497.63523      497.03781      1062.7515     -0.014346766    0.0082830944  -0.1724422      4.2439096      3.6753372      30.005141      468.01415    
       133   0             -60.972272      685.80819      497.63523      497.03781      1062.7515     -0.01434677     0.0082832399  -0.17244212     4.2439096      3.6753372      30.005141      468.01415    
       134   0             -60.972272      685.80819      497.63523      497.03781      1062.7515     -0.014346372    0.0082824205  -0.17244195     4.2439096      3.6753372      30.005141      468.01415    
       135   0             -60.972272      685.80819      497.63523      497.03781      1062.7515     -0.014346145    0.0082818894  -0.17244188     4.2439096      3.6753372      30.005141      468.01415    
       136   0             -60.972272      685.80819      497.63523      497.03781      1062.7515     -0.014345923    0.0082813613  -0.17244182     4.2439096      3.6753372      30.005141      468.01415    
       137   0             -60.972272      685.80819      497.63523      497.03781      1062.7515     -0.014345923    0.0082813613  -0.17244182     4.2439096      3.6753372      30.005141      468.01415    
Loop time of 0.00988328 on 48 procs for 37 steps with 15 atoms

99.6% CPU use with 48 MPI tasks x no OpenMP threads

Minimization stats:
  Stopping criterion = linesearch alpha is zero
  Energy initial, next-to-last, final = 
     -60.9719025832635  -60.9722716002634  -60.9722716002634
  Force two-norm initial, final = 0.039076024 2.1898966e-10
  Force max component initial, final = 0.015017962 7.5531137e-11
  Final line search alpha, max atom move = 0.5 3.7765568e-11
  Iterations, force evaluations = 37 73

MPI task timing breakdown:
Section |  min time  |  avg time  |  max time  |%varavg| %total
---------------------------------------------------------------
Pair    | 7.362e-06  | 0.00097956 | 0.0034489  |   0.0 |  9.91
Neigh   | 0          | 0          | 0          |   0.0 |  0.00
Comm    | 0.0031454  | 0.0054363  | 0.0068133  |   1.8 | 55.01
Output  | 0.0013718  | 0.0014047  | 0.0015274  |   0.1 | 14.21
Modify  | 0          | 0          | 0          |   0.0 |  0.00
Other   |            | 0.002063   |            |       | 20.87

Nlocal:         0.3125 ave           1 max           0 min
Histogram: 33 0 0 0 0 0 0 0 0 15
Nghost:        159.771 ave         171 max         145 min
Histogram: 5 7 4 8 0 0 0 0 12 12
Neighs:              0 ave           0 max           0 min
Histogram: 48 0 0 0 0 0 0 0 0 0
FullNghs:         14.5 ave          50 max           0 min
Histogram: 33 0 0 0 0 0 0 0 9 6

Total # of neighbors = 696
Ave neighs/atom = 46.4
Neighbor list builds = 0
Dangerous builds = 0
Reading restart file ...
  restart file = 24 Mar 2022, LAMMPS = 24 Mar 2022
  restoring atom style atomic from restart
  triclinic box = (-1.7291498e-05 -1.5255031e-05 -0.063528412) to (4.2438923 3.6753183 29.941612) with tilt (-2.1219546 0 0)
  2 by 2 by 12 MPI processor grid
  pair style nep stores no restart info
  15 atoms
  read_restart CPU = 0.031 seconds
Use the NEP4 potential with 3 atom types.
    type 0( Bi with Z = 83).
    type 1( Sb with Z = 51).
    type 2( Te with Z = 52).
    has universal ZBL with inner cutoff 1.25 A and outer cutoff 2.5 A.
    radial cutoff = 6 A.
    angular cutoff = 4 A.
    n_max_radial = 6.
    n_max_angular = 6.
    basis_size_radial = 8.
    basis_size_angular = 8.
    l_max_3body = 6.
    l_max_4body = 2.
    l_max_5body = 1.
    ANN = 56-60-1.
    number of neural network parameters = 10441.
    number of descriptor parameters = 1134.
    total number of parameters = 11575.
Changing box ...
  triclinic box = (-1.7291498e-05 -1.5255031e-05 -0.063528412) to (4.2438923 3.6753183 29.941582) with tilt (-2.1219546 0 0)
Neighbor list info ...
  update every 1 steps, delay 0 steps, check yes
  max neighbors/atom: 2000, page size: 100000
  master list distance cutoff = 7
  ghost atom cutoff = 7
  1 neighbor lists, perpetual/occasional/extra = 1 0 0
  (1) pair nep, perpetual
      attributes: full, newton on
      pair build: full/nsq
      stencil: none
      bin: none
Setting up cg style minimization ...
  Unit style    : metal
  Current step  : 100
Per MPI rank memory allocation (min/avg/max) = 4.116 | 4.116 | 4.116 Mbytes
   Step          Temp          PotEng         Press           Pxx            Pyy            Pzz            Pxy            Pxz            Pyz             Lx             Ly             Lz           Volume    
       100   0             -60.971903     -72.363143     -72.208588     -72.045163     -72.83568       0.20237372    -0.54436241     0.18728309     4.2439096      3.6753335      30.005111      468.01321    
       101   0             -60.972242      703.72176      520.17126      520.01825      1070.9758     -0.50788596     1.1928801     -0.18667994     4.2439096      3.6753335      30.005111      468.01321    
       102   0             -60.972271      683.52947      495.82995      495.7438       1059.0147     -0.28785262     0.66690268    -0.10523003     4.2439096      3.6753335      30.005111      468.01321    
       103   0             -60.972271      685.06868      496.95136      496.97887      1061.2758      0.049973339   -0.14930601     0.032655885    4.2439096      3.6753335      30.005111      468.01321    
       104   0             -60.972271      686.02337      497.66057      497.68929      1062.7202      0.062503713   -0.17845395     0.034479966    4.2439096      3.6753335      30.005111      468.01321    
       105   0             -60.972271      686.36127      497.92839      497.93095      1063.2245     -0.0094403433  -0.003898238    0.0029653425   4.2439096      3.6753335      30.005111      468.01321    
       106   0             -60.972271      686.40358      497.96289      497.96105      1063.2868     -0.021199123    0.024676413   -0.0023149038   4.2439096      3.6753335      30.005111      468.01321    
       107   0             -60.972271      686.39252      497.95016      497.95325      1063.2742     -0.0027191281  -0.019486604    0.0038193652   4.2439096      3.6753335      30.005111      468.01321    
       108   0             -60.972271      686.43851      497.99276      497.99309      1063.3297     -0.0066753407  -0.0093912488   0.00063769015  4.2439096      3.6753335      30.005111      468.01321    
       109   0             -60.972271      686.362        497.93097      497.92838      1063.2267     -0.014903605    0.010543475   -0.0028826111   4.2439096      3.6753335      30.005111      468.01321    
       110   0             -60.972271      686.36907      497.93649      497.93507      1063.2356     -0.013692393    0.0073323026  -0.0015576192   4.2439096      3.6753335      30.005111      468.01321    
       111   0             -60.972271      686.37253      497.93885      497.93831      1063.2404     -0.01293081     0.0052556796  -0.00055786273  4.2439096      3.6753335      30.005111      468.01321    
       112   0             -60.972271      686.36951      497.93562      497.93573      1063.2372     -0.014027033    0.0075193449   0.00011388352  4.2439096      3.6753335      30.005111      468.01321    
       113   0             -60.972271      686.37767      497.94225      497.94259      1063.2482     -0.014888822    0.0094080954   0.00032464184  4.2439096      3.6753335      30.005111      468.01321    
       114   0             -60.972271      686.37564      497.94055      497.94086      1063.2455     -0.015046873    0.0097821423   0.00028325774  4.2439096      3.6753335      30.005111      468.01321    
       115   0             -60.972271      686.37277      497.93843      497.93852      1063.2414     -0.014140323    0.0077893037   7.9034469e-05  4.2439096      3.6753335      30.005111      468.01321    
       116   0             -60.972271      686.37329      497.9393       497.939        1063.2416     -0.013341237    0.0061062087  -0.00031527801  4.2439096      3.6753335      30.005111      468.01321    
       117   0             -60.972271      686.3711       497.9374       497.93707      1063.2388     -0.013707846    0.0069574734  -0.00036458772  4.2439096      3.6753335      30.005111      468.01321    
       118   0             -60.972271      686.37298      497.93889      497.93863      1063.2414     -0.013958435    0.0075003611  -0.00028485367  4.2439096      3.6753335      30.005111      468.01321    
       119   0             -60.972271      686.37409      497.9396       497.93956      1063.2431     -0.014190289    0.0079530169  -6.6671802e-05  4.2439096      3.6753335      30.005111      468.01321    
       120   0             -60.972271      686.3749       497.94012      497.94023      1063.2443     -0.014428027    0.008437159    9.8834544e-05  4.2439096      3.6753335      30.005111      468.01321    
       121   0             -60.972271      686.37555      497.94063      497.94079      1063.2452     -0.014652413    0.0089330684   0.00014167219  4.2439096      3.6753335      30.005111      468.01321    
       122   0             -60.972271      686.37471      497.93993      497.9401       1063.2441     -0.014685831    0.0090061027   0.00015045285  4.2439096      3.6753335      30.005111      468.01321    
       123   0             -60.972271      686.37423      497.93962      497.93975      1063.2433     -0.014429611    0.0084348869   0.00011595372  4.2439096      3.6753335      30.005111      468.01321    
       124   0             -60.972271      686.37426      497.93966      497.93975      1063.2434     -0.014423481    0.0084364141   7.0902214e-05  4.2439096      3.6753335      30.005111      468.01321    
       125   0             -60.972271      686.37427      497.93968      497.93974      1063.2434     -0.014405917    0.0084091492   3.3916194e-05  4.2439096      3.6753335      30.005111      468.01321    
       126   0             -60.972271      686.37436      497.93977      497.9398       1063.2435     -0.014364046    0.008319921    1.6296682e-05  4.2439096      3.6753335      30.005111      468.01321    
       127   0             -60.972271      686.37438      497.93978      497.93981      1063.2435     -0.014337593    0.0082629652   6.8550862e-06  4.2439096      3.6753335      30.005111      468.01321    
       128   0             -60.972271      686.37439      497.93979      497.93981      1063.2436     -0.014338517    0.0082668042   1.8023044e-06  4.2439096      3.6753335      30.005111      468.01321    
       129   0             -60.972271      686.3744       497.9398       497.93982      1063.2436     -0.01434439     0.0082805435   7.1651575e-07  4.2439096      3.6753335      30.005111      468.01321    
       130   0             -60.972271      686.37436      497.93977      497.93979      1063.2435     -0.014346901    0.008283861    7.6923358e-06  4.2439096      3.6753335      30.005111      468.01321    
       131   0             -60.972271      686.37437      497.93978      497.93981      1063.2435     -0.014346616    0.0082827153   9.1369328e-06  4.2439096      3.6753335      30.005111      468.01321    
       132   0             -60.972271      686.37437      497.93977      497.9398       1063.2435     -0.014346932    0.0082835062   8.9286435e-06  4.2439096      3.6753335      30.005111      468.01321    
       133   0             -60.972271      686.37437      497.93978      497.9398       1063.2435     -0.014346915    0.008283618    8.4878459e-06  4.2439096      3.6753335      30.005111      468.01321    
       134   0             -60.972271      686.37437      497.93978      497.93981      1063.2435     -0.014346472    0.0082826952   8.2385477e-06  4.2439096      3.6753335      30.005111      468.01321    
       135   0             -60.972271      686.37437      497.93978      497.9398       1063.2435     -0.014346245    0.0082821652   8.2837912e-06  4.2439096      3.6753335      30.005111      468.01321    
       136   0             -60.972271      686.37437      497.93978      497.93981      1063.2435     -0.014346042    0.008281681    8.3439409e-06  4.2439096      3.6753335      30.005111      468.01321    
       137   0             -60.972271      686.37437      497.93978      497.93981      1063.2435     -0.014346042    0.008281681    8.3439409e-06  4.2439096      3.6753335      30.005111      468.01321    
Loop time of 0.00988265 on 48 procs for 37 steps with 15 atoms

99.7% CPU use with 48 MPI tasks x no OpenMP threads

Minimization stats:
  Stopping criterion = linesearch alpha is zero
  Energy initial, next-to-last, final = 
     -60.9719026259895  -60.9722711444278  -60.9722711444278
  Force two-norm initial, final = 0.039046874 2.115319e-10
  Force max component initial, final = 0.015003533 7.1412792e-11
  Final line search alpha, max atom move = 0.5 3.5706396e-11
  Iterations, force evaluations = 37 73

MPI task timing breakdown:
Section |  min time  |  avg time  |  max time  |%varavg| %total
---------------------------------------------------------------
Pair    | 7.61e-06   | 0.00096488 | 0.0033987  |   0.0 |  9.76
Neigh   | 0          | 0          | 0          |   0.0 |  0.00
Comm    | 0.003218   | 0.0054091  | 0.0067953  |   1.8 | 54.73
Output  | 0.0013184  | 0.0013511  | 0.0014599  |   0.1 | 13.67
Modify  | 0          | 0          | 0          |   0.0 |  0.00
Other   |            | 0.002158   |            |       | 21.83

Nlocal:         0.3125 ave           1 max           0 min
Histogram: 33 0 0 0 0 0 0 0 0 15
Nghost:        159.771 ave         171 max         145 min
Histogram: 5 7 4 8 0 0 0 0 12 12
Neighs:              0 ave           0 max           0 min
Histogram: 48 0 0 0 0 0 0 0 0 0
FullNghs:         14.5 ave          50 max           0 min
Histogram: 33 0 0 0 0 0 0 0 9 6

Total # of neighbors = 696
Ave neighs/atom = 46.4
Neighbor list builds = 0
Dangerous builds = 0
Reading restart file ...
  restart file = 24 Mar 2022, LAMMPS = 24 Mar 2022
  restoring atom style atomic from restart
  triclinic box = (-1.7291498e-05 -1.5255031e-05 -0.063528412) to (4.2438923 3.6753183 29.941612) with tilt (-2.1219546 0 0)
  2 by 2 by 12 MPI processor grid
  pair style nep stores no restart info
  15 atoms
  read_restart CPU = 0.008 seconds
Use the NEP4 potential with 3 atom types.
    type 0( Bi with Z = 83).
    type 1( Sb with Z = 51).
    type 2( Te with Z = 52).
    has universal ZBL with inner cutoff 1.25 A and outer cutoff 2.5 A.
    radial cutoff = 6 A.
    angular cutoff = 4 A.
    n_max_radial = 6.
    n_max_angular = 6.
    basis_size_radial = 8.
    basis_size_angular = 8.
    l_max_3body = 6.
    l_max_4body = 2.
    l_max_5body = 1.
    ANN = 56-60-1.
    number of neural network parameters = 10441.
    number of descriptor parameters = 1134.
    total number of parameters = 11575.
Changing box ...
  triclinic box = (-1.7291498e-05 -1.5255031e-05 -0.063528412) to (4.2438923 3.6753183 29.941642) with tilt (-2.1219546 0 0)
Neighbor list info ...
  update every 1 steps, delay 0 steps, check yes
  max neighbors/atom: 2000, page size: 100000
  master list distance cutoff = 7
  ghost atom cutoff = 7
  1 neighbor lists, perpetual/occasional/extra = 1 0 0
  (1) pair nep, perpetual
      attributes: full, newton on
      pair build: full/nsq
      stencil: none
      bin: none
Setting up cg style minimization ...
  Unit style    : metal
  Current step  : 100
Per MPI rank memory allocation (min/avg/max) = 4.116 | 4.116 | 4.116 Mbytes
   Step          Temp          PotEng         Press           Pxx            Pyy            Pzz            Pxy            Pxz            Pyz             Lx             Ly             Lz           Volume    
       100   0             -60.971903     -73.588443     -73.168936     -73.005512     -74.590882      0.20237107    -0.54436163     0.18728258     4.2439096      3.6753335      30.005171      468.01415    
       101   0             -60.972242      703.02101      519.65657      519.50383      1069.9026     -0.50726316     1.1913469     -0.18634802     4.2439096      3.6753335      30.005171      468.01415    
       102   0             -60.972272      683.07327      495.45769      495.37154      1058.3906     -0.28785283     0.66690358    -0.10522919     4.2439096      3.6753335      30.005171      468.01415    
       103   0             -60.972272      684.61788      496.58327      496.61086      1060.6595      0.050225697   -0.14991612     0.032759536    4.2439096      3.6753335      30.005171      468.01415    
       104   0             -60.972272      685.57229      497.29205      497.32083      1062.104       0.062672804   -0.17886244     0.034548284    4.2439096      3.6753335      30.005171      468.01415    
       105   0             -60.972272      685.91176      497.56125      497.56381      1062.6102     -0.0094166366  -0.0039556601   0.0029754677   4.2439096      3.6753335      30.005171      468.01415    
       106   0             -60.972272      685.95333      497.59514      497.5933       1062.6715     -0.021195747    0.024668063   -0.002312838    4.2439096      3.6753335      30.005171      468.01415    
       107   0             -60.972272      685.9418       497.58204      497.58511      1062.6582     -0.0027786304  -0.019342612    0.0037944123   4.2439096      3.6753335      30.005171      468.01415    
       108   0             -60.972272      685.98882      497.6255       497.62586      1062.7151     -0.0065643166  -0.009658639    0.00068067537  4.2439096      3.6753335      30.005171      468.01415    
       109   0             -60.972272      685.91182      497.56329      497.56073      1062.6114     -0.014798141    0.010291458   -0.002847488    4.2439096      3.6753335      30.005171      468.01415    
       110   0             -60.972272      685.91855      497.56853      497.5671       1062.62       -0.013676578    0.0072972716  -0.0015602856   4.2439096      3.6753335      30.005171      468.01415    
       111   0             -60.972272      685.92239      497.5712       497.57066      1062.6253     -0.012937086    0.0052722112  -0.00056430089  4.2439096      3.6753335      30.005171      468.01415    
       112   0             -60.972272      685.91917      497.56779      497.56791      1062.6218     -0.014010528    0.0074822283   0.00011268597  4.2439096      3.6753335      30.005171      468.01415    
       113   0             -60.972272      685.92745      497.57453      497.57487      1062.633      -0.014883741    0.0093943886   0.00033095604  4.2439096      3.6753335      30.005171      468.01415    
       114   0             -60.972272      685.92553      497.57292      497.57323      1062.6304     -0.015051395    0.0097929431   0.00028185131  4.2439096      3.6753335      30.005171      468.01415    
       115   0             -60.972272      685.92231      497.57051      497.57059      1062.6258     -0.014143464    0.0077997009   6.9664665e-05  4.2439096      3.6753335      30.005171      468.01415    
       116   0             -60.972272      685.92313      497.57164      497.57133      1062.6264     -0.013336863    0.0060979051  -0.00031997322  4.2439096      3.6753335      30.005171      468.01415    
       117   0             -60.972272      685.92083      497.56965      497.56931      1062.6235     -0.013692994    0.0069244068  -0.00036662391  4.2439096      3.6753335      30.005171      468.01415    
       118   0             -60.972272      685.92273      497.57114      497.57088      1062.6262     -0.013956691    0.0074968082  -0.00028596973  4.2439096      3.6753335      30.005171      468.01415    
       119   0             -60.972272      685.92394      497.57193      497.57189      1062.628      -0.0141952      0.0079632213  -6.3755265e-05  4.2439096      3.6753335      30.005171      468.01415    
       120   0             -60.972272      685.92469      497.57241      497.57252      1062.6291     -0.014427226    0.0084358743   9.7351386e-05  4.2439096      3.6753335      30.005171      468.01415    
       121   0             -60.972272      685.92536      497.57293      497.57309      1062.6301     -0.014641884    0.0089102403   0.00013845859  4.2439096      3.6753335      30.005171      468.01415    
       122   0             -60.972272      685.92453      497.57224      497.57241      1062.6289     -0.01468585     0.0090071349   0.00014765543  4.2439096      3.6753335      30.005171      468.01415    
       123   0             -60.972272      685.92402      497.5719       497.57203      1062.6281     -0.014432511    0.008441532    0.00011590111  4.2439096      3.6753335      30.005171      468.01415    
       124   0             -60.972272      685.92406      497.57196      497.57205      1062.6282     -0.014425425    0.0084406145   7.1628625e-05  4.2439096      3.6753335      30.005171      468.01415    
       125   0             -60.972272      685.92407      497.57197      497.57203      1062.6282     -0.014406518    0.0084103005   3.4631994e-05  4.2439096      3.6753335      30.005171      468.01415    
       126   0             -60.972272      685.92416      497.57206      497.5721       1062.6283     -0.014365086    0.0083222567   1.6468112e-05  4.2439096      3.6753335      30.005171      468.01415    
       127   0             -60.972272      685.92418      497.57208      497.5721       1062.6284     -0.014337311    0.0082624176   6.6672885e-06  4.2439096      3.6753335      30.005171      468.01415    
       128   0             -60.972272      685.92419      497.57208      497.5721       1062.6284     -0.014338242    0.0082662335   1.7279172e-06  4.2439096      3.6753335      30.005171      468.01415    
       129   0             -60.972272      685.9242       497.5721       497.57212      1062.6284     -0.014344122    0.0082799838   6.530276e-07   4.2439096      3.6753335      30.005171      468.01415    
       130   0             -60.972272      685.92416      497.57206      497.57209      1062.6283     -0.014346722    0.0082835667   7.4444651e-06  4.2439096      3.6753335      30.005171      468.01415    
       131   0             -60.972272      685.92417      497.57207      497.5721       1062.6283     -0.01434634     0.0082821573   9.0199003e-06  4.2439096      3.6753335      30.005171      468.01415    
       132   0             -60.972272      685.92417      497.57207      497.5721       1062.6283     -0.014346638    0.0082828911   8.8542009e-06  4.2439096      3.6753335      30.005171      468.01415    
       133   0             -60.972272      685.92417      497.57207      497.5721       1062.6283     -0.014346661    0.0082830753   8.472953e-06   4.2439096      3.6753335      30.005171      468.01415    
       134   0             -60.972272      685.92417      497.57207      497.5721       1062.6284     -0.014346291    0.0082823128   8.2375428e-06  4.2439096      3.6753335      30.005171      468.01415    
       135   0             -60.972272      685.92417      497.57207      497.5721       1062.6283     -0.014346068    0.0082817911   8.2805908e-06  4.2439096      3.6753335      30.005171      468.01415    
       136   0             -60.972272      685.92417      497.57207      497.5721       1062.6283     -0.014345847    0.0082812647   8.3479905e-06  4.2439096      3.6753335      30.005171      468.01415    
       137   0             -60.972272      685.92417      497.57207      497.5721       1062.6283     -0.014345847    0.0082812647   8.3479905e-06  4.2439096      3.6753335      30.005171      468.01415    
Loop time of 0.00976189 on 48 procs for 37 steps with 15 atoms

99.2% CPU use with 48 MPI tasks x no OpenMP threads

Minimization stats:
  Stopping criterion = linesearch alpha is zero
  Energy initial, next-to-last, final = 
     -60.9719025829245  -60.9722717654188  -60.9722717654188
  Force two-norm initial, final = 0.039085346 2.2048828e-10
  Force max component initial, final = 0.015022164 7.6245621e-11
  Final line search alpha, max atom move = 0.5 3.812281e-11
  Iterations, force evaluations = 37 73

MPI task timing breakdown:
Section |  min time  |  avg time  |  max time  |%varavg| %total
---------------------------------------------------------------
Pair    | 7.011e-06  | 0.00096652 | 0.0032627  |   0.0 |  9.90
Neigh   | 0          | 0          | 0          |   0.0 |  0.00
Comm    | 0.0032284  | 0.0053492  | 0.006735   |   1.8 | 54.80
Output  | 0.0012952  | 0.001321   | 0.0014215  |   0.1 | 13.53
Modify  | 0          | 0          | 0          |   0.0 |  0.00
Other   |            | 0.002125   |            |       | 21.77

Nlocal:         0.3125 ave           1 max           0 min
Histogram: 33 0 0 0 0 0 0 0 0 15
Nghost:        159.771 ave         171 max         145 min
Histogram: 5 7 4 8 0 0 0 0 12 12
Neighs:              0 ave           0 max           0 min
Histogram: 48 0 0 0 0 0 0 0 0 0
FullNghs:         14.5 ave          50 max           0 min
Histogram: 33 0 0 0 0 0 0 0 9 6

Total # of neighbors = 696
Ave neighs/atom = 46.4
Neighbor list builds = 0
Dangerous builds = 0
Reading restart file ...
  restart file = 24 Mar 2022, LAMMPS = 24 Mar 2022
  restoring atom style atomic from restart
  triclinic box = (-1.7291498e-05 -1.5255031e-05 -0.063528412) to (4.2438923 3.6753183 29.941612) with tilt (-2.1219546 0 0)
  2 by 2 by 12 MPI processor grid
  pair style nep stores no restart info
  15 atoms
  read_restart CPU = 0.015 seconds
Use the NEP4 potential with 3 atom types.
    type 0( Bi with Z = 83).
    type 1( Sb with Z = 51).
    type 2( Te with Z = 52).
    has universal ZBL with inner cutoff 1.25 A and outer cutoff 2.5 A.
    radial cutoff = 6 A.
    angular cutoff = 4 A.
    n_max_radial = 6.
    n_max_angular = 6.
    basis_size_radial = 8.
    basis_size_angular = 8.
    l_max_3body = 6.
    l_max_4body = 2.
    l_max_5body = 1.
    ANN = 56-60-1.
    number of neural network parameters = 10441.
    number of descriptor parameters = 1134.
    total number of parameters = 11575.
Changing box ...
  triclinic box = (-1.7291498e-05 -1.5255031e-05 -0.063528412) to (4.2438923 3.6753183 29.941612) with tilt (-2.1219546 0 -3.0005141e-05)
Neighbor list info ...
  update every 1 steps, delay 0 steps, check yes
  max neighbors/atom: 2000, page size: 100000
  master list distance cutoff = 7
  ghost atom cutoff = 7
  1 neighbor lists, perpetual/occasional/extra = 1 0 0
  (1) pair nep, perpetual
      attributes: full, newton on
      pair build: full/nsq
      stencil: none
      bin: none
Setting up cg style minimization ...
  Unit style    : metal
  Current step  : 100
Per MPI rank memory allocation (min/avg/max) = 4.116 | 4.116 | 4.116 Mbytes
   Step          Temp          PotEng         Press           Pxx            Pyy            Pzz            Pxy            Pxz            Pyz             Lx             Ly             Lz           Volume    
       100   0             -60.971903     -72.975794     -72.994147     -72.219954     -73.71328       0.2023721     -0.54436077     0.83558564     4.2439096      3.6753335      30.005141      468.01368    
       101   0             -60.972242      703.3712       519.80986      519.86482      1070.4389     -0.50757387     1.1921144     -0.0043616258   4.2439096      3.6753335      30.005141      468.01368    
       102   0             -60.972271      683.30105      495.50985      495.69112      1058.7022     -0.28785149     0.66690123     0.15143236     4.2439096      3.6753335      30.005141      468.01368    
       103   0             -60.972271      684.83916      496.57369      496.98218      1060.9616      0.049176273   -0.14738068     0.42798106     4.2439096      3.6753335      30.005141      468.01368    
       104   0             -60.972271      685.79317      497.28409      497.69024      1062.4052      0.061505294   -0.17604185     0.42673017     4.2439096      3.6753335      30.005141      468.01368    
       105   0             -60.972271      686.13647      497.57045      497.9217       1062.9173     -0.0095823533  -0.0035538311   0.360954       4.2439096      3.6753335      30.005141      468.01368    
       106   0             -60.972271      686.17842      497.60708      497.94905      1062.9791     -0.021045157    0.02430423     0.34989623     4.2439096      3.6753335      30.005141      468.01368    
       107   0             -60.972271      686.16737      497.59302      497.9426       1062.9665     -0.0029399896  -0.018953577    0.35984885     4.2439096      3.6753335      30.005141      468.01368    
       108   0             -60.972271      686.21359      497.63829      497.98017      1063.0223     -0.0067874347  -0.0091206113   0.351245       4.2439096      3.6753335      30.005141      468.01368    
       109   0             -60.972271      686.13691      497.57786      497.91381      1062.9191     -0.014826867    0.010357721    0.34408939     4.2439096      3.6753335      30.005141      468.01368    
       110   0             -60.972271      686.144        497.58224      497.92167      1062.9281     -0.013658067    0.0072492861   0.34792977     4.2439096      3.6753335      30.005141      468.01368    
       111   0             -60.972271      686.14746      497.58365      497.92583      1062.9329     -0.012932341    0.0052580821   0.3509315      4.2439096      3.6753335      30.005141      468.01368    
       112   0             -60.972271      686.14443      497.5793       497.92437      1062.9296     -0.014042821    0.0075560139   0.35391395     4.2439096      3.6753335      30.005141      468.01368    
       113   0             -60.972271      686.15252      497.58538      497.93168      1062.9405     -0.014884535    0.0094005745   0.35513547     4.2439096      3.6753335      30.005141      468.01368    
       114   0             -60.972271      686.1505       497.58369      497.92995      1062.9378     -0.015029045    0.0097429467   0.35508609     4.2439096      3.6753335      30.005141      468.01368    
       115   0             -60.972271      686.14765      497.5821       497.92711      1062.9337     -0.014134069    0.0077766562   0.35383814     4.2439096      3.6753335      30.005141      468.01368    
       116   0             -60.972271      686.14827      497.58372      497.92698      1062.9341     -0.013372149    0.0061749099   0.35204457     4.2439096      3.6753335      30.005141      468.01368    
       117   0             -60.972271      686.14606      497.58175      497.9251       1062.9313     -0.013730206    0.0070054884   0.35209982     4.2439096      3.6753335      30.005141      468.01368    
       118   0             -60.972271      686.14799      497.5831       497.92688      1062.934      -0.013980801    0.0075477256   0.35253366     4.2439096      3.6753335      30.005141      468.01368    
       119   0             -60.972271      686.14909      497.58347      497.92813      1062.9357     -0.014212835    0.0079985288   0.35345391     4.2439096      3.6753335      30.005141      468.01368    
       120   0             -60.972271      686.14968      497.58364      497.92884      1062.9366     -0.01440157     0.0083840793   0.35401149     4.2439096      3.6753335      30.005141      468.01368    
       121   0             -60.972271      686.15017      497.58395      497.92933      1062.9372     -0.014578179    0.0087798887   0.35417889     4.2439096      3.6753335      30.005141      468.01368    
       122   0             -60.972271      686.14931      497.58323      497.92863      1062.9361     -0.01460265     0.0088342982   0.35420647     4.2439096      3.6753335      30.005141      468.01368    
       123   0             -60.972271      686.14898      497.58311      497.92833      1062.9355     -0.014383033    0.0083384256   0.35403543     4.2439096      3.6753335      30.005141      468.01368    
       124   0             -60.972271      686.14906      497.58323      497.92833      1062.9356     -0.014392527    0.0083732307   0.35390759     4.2439096      3.6753335      30.005141      468.01368    
       125   0             -60.972271      686.14912      497.58332      497.92832      1062.9357     -0.014388302    0.0083741382   0.35379863     4.2439096      3.6753335      30.005141      468.01368    
       126   0             -60.972271      686.14926      497.58346      497.92841      1062.9359     -0.014356004    0.0083034196   0.35375118     4.2439096      3.6753335      30.005141      468.01368    
       127   0             -60.972271      686.14928      497.58348      497.92841      1062.936      -0.014340581    0.0082692086   0.35373297     4.2439096      3.6753335      30.005141      468.01368    
       128   0             -60.972271      686.14929      497.58349      497.92841      1062.936      -0.014344119    0.0082783871   0.3537237      4.2439096      3.6753335      30.005141      468.01368    
       129   0             -60.972271      686.1493       497.5835       497.92842      1062.936      -0.014349138    0.0082903399   0.35372133     4.2439096      3.6753335      30.005141      468.01368    
       130   0             -60.972271      686.14926      497.58346      497.92839      1062.9359     -0.014346914    0.0082838804   0.35373414     4.2439096      3.6753335      30.005141      468.01368    
       131   0             -60.972271      686.14927      497.58347      497.92841      1062.9359     -0.014345894    0.0082812387   0.35373678     4.2439096      3.6753335      30.005141      468.01368    
       132   0             -60.972271      686.14927      497.58347      497.9284       1062.9359     -0.014346264    0.0082821405   0.3537364      4.2439096      3.6753335      30.005141      468.01368    
       133   0             -60.972271      686.14927      497.58347      497.9284       1062.9359     -0.014346506    0.0082827801   0.35373565     4.2439096      3.6753335      30.005141      468.01368    
       134   0             -60.972271      686.14927      497.58347      497.92841      1062.9359     -0.014346328    0.0082824008   0.35373526     4.2439096      3.6753335      30.005141      468.01368    
       135   0             -60.972271      686.14927      497.58347      497.92841      1062.9359     -0.014346138    0.008281948    0.35373536     4.2439096      3.6753335      30.005141      468.01368    
       136   0             -60.972271      686.14927      497.58347      497.92841      1062.9359     -0.014345953    0.0082815034   0.35373548     4.2439096      3.6753335      30.005141      468.01368    
       137   0             -60.972271      686.14927      497.58347      497.92841      1062.9359     -0.014346341    0.0082824435   0.35373514     4.2439096      3.6753335      30.005141      468.01368    
       138   0             -60.972271      686.14927      497.58347      497.9284       1062.9359     -0.014346267    0.008282263    0.35373523     4.2439096      3.6753335      30.005141      468.01368    
       139   0             -60.972271      686.14927      497.58347      497.92841      1062.9359     -0.01434611     0.0082818798   0.35373538     4.2439096      3.6753335      30.005141      468.01368    
Loop time of 0.0101757 on 48 procs for 39 steps with 15 atoms

99.5% CPU use with 48 MPI tasks x no OpenMP threads

Minimization stats:
  Stopping criterion = force tolerance
  Energy initial, next-to-last, final = 
     -60.9719026044358  -60.9722714549166  -60.9722714549166
  Force two-norm initial, final = 0.039066118 6.2105437e-11
  Force max component initial, final = 0.015012848 2.840464e-11
  Final line search alpha, max atom move = 1 2.840464e-11
  Iterations, force evaluations = 39 76

MPI task timing breakdown:
Section |  min time  |  avg time  |  max time  |%varavg| %total
---------------------------------------------------------------
Pair    | 7.011e-06  | 0.001005   | 0.0035106  |   4.7 |  9.88
Neigh   | 0          | 0          | 0          |   0.0 |  0.00
Comm    | 0.00319    | 0.0055287  | 0.0069166  |   1.9 | 54.33
Output  | 0.0014432  | 0.0014702  | 0.0015684  |   0.1 | 14.45
Modify  | 0          | 0          | 0          |   0.0 |  0.00
Other   |            | 0.002172   |            |       | 21.34

Nlocal:         0.3125 ave           1 max           0 min
Histogram: 33 0 0 0 0 0 0 0 0 15
Nghost:        159.771 ave         171 max         145 min
Histogram: 5 7 4 8 0 0 0 0 12 12
Neighs:              0 ave           0 max           0 min
Histogram: 48 0 0 0 0 0 0 0 0 0
FullNghs:         14.5 ave          50 max           0 min
Histogram: 33 0 0 0 0 0 0 0 9 6

Total # of neighbors = 696
Ave neighs/atom = 46.4
Neighbor list builds = 0
Dangerous builds = 0
Reading restart file ...
  restart file = 24 Mar 2022, LAMMPS = 24 Mar 2022
  restoring atom style atomic from restart
  triclinic box = (-1.7291498e-05 -1.5255031e-05 -0.063528412) to (4.2438923 3.6753183 29.941612) with tilt (-2.1219546 0 0)
  2 by 2 by 12 MPI processor grid
  pair style nep stores no restart info
  15 atoms
  read_restart CPU = 0.002 seconds
Use the NEP4 potential with 3 atom types.
    type 0( Bi with Z = 83).
    type 1( Sb with Z = 51).
    type 2( Te with Z = 52).
    has universal ZBL with inner cutoff 1.25 A and outer cutoff 2.5 A.
    radial cutoff = 6 A.
    angular cutoff = 4 A.
    n_max_radial = 6.
    n_max_angular = 6.
    basis_size_radial = 8.
    basis_size_angular = 8.
    l_max_3body = 6.
    l_max_4body = 2.
    l_max_5body = 1.
    ANN = 56-60-1.
    number of neural network parameters = 10441.
    number of descriptor parameters = 1134.
    total number of parameters = 11575.
Changing box ...
  triclinic box = (-1.7291498e-05 -1.5255031e-05 -0.063528412) to (4.2438923 3.6753183 29.941612) with tilt (-2.1219546 0 3.0005141e-05)
Neighbor list info ...
  update every 1 steps, delay 0 steps, check yes
  max neighbors/atom: 2000, page size: 100000
  master list distance cutoff = 7
  ghost atom cutoff = 7
  1 neighbor lists, perpetual/occasional/extra = 1 0 0
  (1) pair nep, perpetual
      attributes: full, newton on
      pair build: full/nsq
      stencil: none
      bin: none
Setting up cg style minimization ...
  Unit style    : metal
  Current step  : 100
Per MPI rank memory allocation (min/avg/max) = 4.116 | 4.116 | 4.116 Mbytes
   Step          Temp          PotEng         Press           Pxx            Pyy            Pzz            Pxy            Pxz            Pyz             Lx             Ly             Lz           Volume    
       100   0             -60.971903     -72.975794     -72.383379     -72.830723     -73.713281      0.20237269    -0.54436326    -0.46101786     4.2439096      3.6753335      30.005141      468.01368    
       101   0             -60.972242      703.37189      520.01822      519.65751      1070.4399     -0.50757505     1.1921121     -0.36866337     4.2439096      3.6753335      30.005141      468.01368    
       102   0             -60.972271      683.30147      495.77761      495.42405      1058.7028     -0.2878536      0.66690416    -0.36188864     4.2439096      3.6753335      30.005141      468.01368    
       103   0             -60.972271      684.84461      496.95911      496.60511      1060.9696      0.050398038   -0.15033211    -0.36332069     4.2439096      3.6753335      30.005141      468.01368    
       104   0             -60.972271      685.79934      497.66652      497.31713      1062.4144      0.062935135   -0.17949608    -0.35858897     4.2439096      3.6753335      30.005141      468.01368    
       105   0             -60.972271      686.13655      497.91925      497.57299      1062.9174     -0.0093791777  -0.0040465078  -0.35515224     4.2439096      3.6753335      30.005141      468.01368    
       106   0             -60.972271      686.17848      497.95089      497.60534      1062.9792     -0.021247034    0.024792099   -0.35439374     4.2439096      3.6753335      30.005141      468.01368    
       107   0             -60.972271      686.16707      497.93934      497.59579      1062.9661     -0.0026858589  -0.019566665   -0.35237898     4.2439096      3.6753335      30.005141      468.01368    
       108   0             -60.972271      686.21364      497.97994      497.63864      1063.0223     -0.0065640247  -0.0096596762  -0.35005338     4.2439096      3.6753335      30.005141      468.01368    
       109   0             -60.972271      686.13686      497.91633      497.57527      1062.919      -0.014858987    0.010437432   -0.34977615     4.2439096      3.6753335      30.005141      468.01368    
       110   0             -60.972271      686.14372      497.92285      497.58061      1062.9277     -0.013694482    0.007339128   -0.35100333     4.2439096      3.6753335      30.005141      468.01368    
       111   0             -60.972271      686.14745      497.92637      497.58313      1062.9329     -0.012933914    0.0052638003  -0.35202781     4.2439096      3.6753335      30.005141      468.01368    
       112   0             -60.972271      686.14431      497.92415      497.57932      1062.9295     -0.014010756    0.0074822366  -0.35367062     4.2439096      3.6753335      30.005141      468.01368    
       113   0             -60.972271      686.15256      497.93138      497.58574      1062.9406     -0.014881199    0.0093898227  -0.3545069      4.2439096      3.6753335      30.005141      468.01368    
       114   0             -60.972271      686.1506       497.92974      497.58407      1062.938      -0.015050433    0.0097914485  -0.35453708     4.2439096      3.6753335      30.005141      468.01368    
       115   0             -60.972271      686.14751      497.92692      497.58206      1062.9336     -0.014145361    0.0078022668  -0.35369222     4.2439096      3.6753335      30.005141      468.01368    
       116   0             -60.972271      686.14822      497.92725      497.58341      1062.934      -0.013342623    0.0061082974  -0.35264112     4.2439096      3.6753335      30.005141      468.01368    
       117   0             -60.972271      686.14595      497.92533      497.58136      1062.9312     -0.013704261    0.0069485303  -0.35278351     4.2439096      3.6753335      30.005141      468.01368    
       118   0             -60.972271      686.14787      497.92701      497.58277      1062.9338     -0.013965085    0.0075148143  -0.35305683     4.2439096      3.6753335      30.005141      468.01368    
       119   0             -60.972271      686.14904      497.92811      497.58342      1062.9356     -0.014198745    0.0079702044  -0.35352477     4.2439096      3.6753335      30.005141      468.01368    
       120   0             -60.972271      686.14975      497.9288       497.58377      1062.9367     -0.014416053    0.0084129641  -0.35387732     4.2439096      3.6753335      30.005141      468.01368    
       121   0             -60.972271      686.15036      497.92939      497.58419      1062.9375     -0.014619302    0.0088641146  -0.35404796     4.2439096      3.6753335      30.005141      468.01368    
       122   0             -60.972271      686.14953      497.92872      497.58348      1062.9364     -0.01465809     0.0089497139  -0.35408265     4.2439096      3.6753335      30.005141      468.01368    
       123   0             -60.972271      686.14907      497.92831      497.58326      1062.9356     -0.014415579    0.0084059039  -0.35390272     4.2439096      3.6753335      30.005141      468.01368    
       124   0             -60.972271      686.14913      497.92833      497.58333      1062.9357     -0.014414266    0.0084176481  -0.35383865     4.2439096      3.6753335      30.005141      468.01368    
       125   0             -60.972271      686.14915      497.92831      497.58337      1062.9358     -0.014400261    0.008397987   -0.35377782     4.2439096      3.6753335      30.005141      468.01368    
       126   0             -60.972271      686.14926      497.92838      497.58348      1062.9359     -0.014361688    0.0083152505  -0.35373304     4.2439096      3.6753335      30.005141      468.01368    
       127   0             -60.972271      686.14928      497.92838      497.58351      1062.936      -0.014338925    0.0082657363  -0.35370959     4.2439096      3.6753335      30.005141      468.01368    
       128   0             -60.972271      686.14929      497.92838      497.58351      1062.936      -0.014341087    0.0082720967  -0.35370469     4.2439096      3.6753335      30.005141      468.01368    
       129   0             -60.972271      686.1493       497.92839      497.58353      1062.936      -0.014346589    0.0082850777  -0.35370601     4.2439096      3.6753335      30.005141      468.01368    
       130   0             -60.972271      686.14926      497.92836      497.58349      1062.9359     -0.014346993    0.0082840957  -0.35371441     4.2439096      3.6753335      30.005141      468.01368    
       131   0             -60.972271      686.14927      497.92838      497.5835       1062.9359     -0.014346258    0.008281972   -0.35371591     4.2439096      3.6753335      30.005141      468.01368    
       132   0             -60.972271      686.14927      497.92838      497.5835       1062.9359     -0.014346582    0.0082827706  -0.35371585     4.2439096      3.6753335      30.005141      468.01368    
       133   0             -60.972271      686.14927      497.92837      497.5835       1062.9359     -0.014346705    0.008283166   -0.35371542     4.2439096      3.6753335      30.005141      468.01368    
       134   0             -60.972271      686.14927      497.92838      497.5835       1062.9359     -0.014346417    0.0082825684  -0.353715       4.2439096      3.6753335      30.005141      468.01368    
       135   0             -60.972271      686.14927      497.92838      497.5835       1062.9359     -0.014346204    0.0082820673  -0.35371495     4.2439096      3.6753335      30.005141      468.01368    
       136   0             -60.972271      686.14927      497.92838      497.5835       1062.9359     -0.014345994    0.0082815655  -0.35371493     4.2439096      3.6753335      30.005141      468.01368    
       137   0             -60.972271      686.14927      497.92838      497.5835       1062.9359     -0.014346412    0.0082825736  -0.35371493     4.2439096      3.6753335      30.005141      468.01368    
       138   0             -60.972271      686.14927      497.92837      497.5835       1062.9359     -0.01434635     0.0082824194  -0.35371495     4.2439096      3.6753335      30.005141      468.01368    
       139   0             -60.972271      686.14927      497.92838      497.5835       1062.9359     -0.014346183    0.0082820126  -0.35371497     4.2439096      3.6753335      30.005141      468.01368    
Loop time of 0.010037 on 48 procs for 39 steps with 15 atoms

99.3% CPU use with 48 MPI tasks x no OpenMP threads

Minimization stats:
  Stopping criterion = force tolerance
  Energy initial, next-to-last, final = 
     -60.9719026045452  -60.9722714549165  -60.9722714549166
  Force two-norm initial, final = 0.039066105 6.4197701e-11
  Force max component initial, final = 0.015012849 2.9330705e-11
  Final line search alpha, max atom move = 1 2.9330705e-11
  Iterations, force evaluations = 39 76

MPI task timing breakdown:
Section |  min time  |  avg time  |  max time  |%varavg| %total
---------------------------------------------------------------
Pair    | 7.096e-06  | 0.00099665 | 0.0033951  |   0.0 |  9.93
Neigh   | 0          | 0          | 0          |   0.0 |  0.00
Comm    | 0.0032685  | 0.0054236  | 0.0067292  |   1.9 | 54.04
Output  | 0.0013957  | 0.0014139  | 0.0015191  |   0.1 | 14.09
Modify  | 0          | 0          | 0          |   0.0 |  0.00
Other   |            | 0.002203   |            |       | 21.95

Nlocal:         0.3125 ave           1 max           0 min
Histogram: 33 0 0 0 0 0 0 0 0 15
Nghost:        159.771 ave         171 max         145 min
Histogram: 5 7 4 8 0 0 0 0 12 12
Neighs:              0 ave           0 max           0 min
Histogram: 48 0 0 0 0 0 0 0 0 0
FullNghs:         14.5 ave          50 max           0 min
Histogram: 33 0 0 0 0 0 0 0 9 6

Total # of neighbors = 696
Ave neighs/atom = 46.4
Neighbor list builds = 0
Dangerous builds = 0
Reading restart file ...
  restart file = 24 Mar 2022, LAMMPS = 24 Mar 2022
  restoring atom style atomic from restart
  triclinic box = (-1.7291498e-05 -1.5255031e-05 -0.063528412) to (4.2438923 3.6753183 29.941612) with tilt (-2.1219546 0 0)
  2 by 2 by 12 MPI processor grid
  pair style nep stores no restart info
  15 atoms
  read_restart CPU = 0.094 seconds
Use the NEP4 potential with 3 atom types.
    type 0( Bi with Z = 83).
    type 1( Sb with Z = 51).
    type 2( Te with Z = 52).
    has universal ZBL with inner cutoff 1.25 A and outer cutoff 2.5 A.
    radial cutoff = 6 A.
    angular cutoff = 4 A.
    n_max_radial = 6.
    n_max_angular = 6.
    basis_size_radial = 8.
    basis_size_angular = 8.
    l_max_3body = 6.
    l_max_4body = 2.
    l_max_5body = 1.
    ANN = 56-60-1.
    number of neural network parameters = 10441.
    number of descriptor parameters = 1134.
    total number of parameters = 11575.
Changing box ...
  triclinic box = (-1.7291498e-05 -1.5255031e-05 -0.063528412) to (4.2438923 3.6753183 29.941612) with tilt (-2.1219546 -3.0005141e-05 0)
Neighbor list info ...
  update every 1 steps, delay 0 steps, check yes
  max neighbors/atom: 2000, page size: 100000
  master list distance cutoff = 7
  ghost atom cutoff = 7
  1 neighbor lists, perpetual/occasional/extra = 1 0 0
  (1) pair nep, perpetual
      attributes: full, newton on
      pair build: full/nsq
      stencil: none
      bin: none
Setting up cg style minimization ...
  Unit style    : metal
  Current step  : 100
Per MPI rank memory allocation (min/avg/max) = 4.116 | 4.116 | 4.116 Mbytes
   Step          Temp          PotEng         Press           Pxx            Pyy            Pzz            Pxy            Pxz            Pyz             Lx             Ly             Lz           Volume    
       100   0             -60.971903     -72.975794     -72.688763     -72.525338     -73.713281     -0.10301175     0.10393886     0.18728302     4.2439096      3.6753335      30.005141      468.01368    
       101   0             -60.972242      703.3736       519.91562      519.76274      1070.4424     -0.61149571     1.3742674     -0.1865142      4.2439096      3.6753335      30.005141      468.01368    
       102   0             -60.972271      683.30252      495.64474      495.55859      1058.7042     -0.42156324     0.92356786    -0.10523228     4.2439096      3.6753335      30.005141      468.01368    
       103   0             -60.972271      684.85861      496.77846      496.80717      1060.9902     -0.13783357     0.23955613     0.034105439    4.2439096      3.6753335      30.005141      468.01368    
       104   0             -60.972271      685.8152       497.48874      497.51883      1062.438      -0.12315837     0.20644181     0.036143937    4.2439096      3.6753335      30.005141      468.01368    
       105   0             -60.972271      686.13685      497.74495      497.74771      1062.9179     -0.18335975     0.35304371     0.0032238062   4.2439096      3.6753335      30.005141      468.01368    
       106   0             -60.972271      686.17869      497.77931      497.77726      1062.9795     -0.19354526     0.37794265    -0.0025613992   4.2439096      3.6753335      30.005141      468.01368    
       107   0             -60.972271      686.16618      497.76519      497.76852      1062.9648     -0.17542509     0.33524241     0.0041082006   4.2439096      3.6753335      30.005141      468.01368    
       108   0             -60.972271      686.2134       497.80887      497.80943      1063.0219     -0.17687961     0.33983193     0.00092683581  4.2439096      3.6753335      30.005141      468.01368    
       109   0             -60.972271      686.13639      497.74679      497.74416      1062.9182     -0.18415438     0.3574901     -0.0029218192   4.2439096      3.6753335      30.005141      468.01368    
       110   0             -60.972271      686.14287      497.75179      497.75032      1062.9265     -0.18418131     0.35697726    -0.0016191554   4.2439096      3.6753335      30.005141      468.01368    
       111   0             -60.972271      686.14737      497.75498      497.75443      1062.9327     -0.1842786      0.35672817    -0.00056695061  4.2439096      3.6753335      30.005141      468.01368    
       112   0             -60.972271      686.14402      497.75144      497.75156      1062.9291     -0.1863799      0.36103705     0.00012061299  4.2439096      3.6753335      30.005141      468.01368    
       113   0             -60.972271      686.15259      497.75841      497.75875      1062.9406     -0.18782019     0.36410628     0.00032902724  4.2439096      3.6753335      30.005141      468.01368    
       114   0             -60.972271      686.15082      497.75694      497.75722      1062.9383     -0.18804805     0.36463926     0.0002548893   4.2439096      3.6753335      30.005141      468.01368    
       115   0             -60.972271      686.1472       497.75418      497.75426      1062.9331     -0.1866652      0.36168396     7.4088708e-05  4.2439096      3.6753335      30.005141      468.01368    
       116   0             -60.972271      686.14828      497.75552      497.75526      1062.9341     -0.18516228     0.35853774    -0.00027231796  4.2439096      3.6753335      30.005141      468.01368    
       117   0             -60.972271      686.14578      497.75337      497.75305      1062.9309     -0.18556082     0.35944328    -0.00034252241  4.2439096      3.6753335      30.005141      468.01368    
       118   0             -60.972271      686.14783      497.75498      497.75474      1062.9338     -0.18603291     0.36044874    -0.00027282476  4.2439096      3.6753335      30.005141      468.01368    
       119   0             -60.972271      686.14919      497.7559       497.75588      1062.9358     -0.18657824     0.36154518    -4.4651814e-05  4.2439096      3.6753335      30.005141      468.01368    
       120   0             -60.972271      686.1496       497.75613      497.75621      1062.9365     -0.1868932      0.36219095     5.8686872e-05  4.2439096      3.6753335      30.005141      468.01368    
       121   0             -60.972271      686.15008      497.75653      497.75662      1062.9371     -0.18709754     0.36263675     6.4686365e-05  4.2439096      3.6753335      30.005141      468.01368    
       122   0             -60.972271      686.14927      497.75586      497.75596      1062.936      -0.18716634     0.36278656     6.7416243e-05  4.2439096      3.6753335      30.005141      468.01368    
       123   0             -60.972271      686.14887      497.75558      497.75568      1062.9353     -0.18691635     0.36223193     8.110139e-05   4.2439096      3.6753335      30.005141      468.01368    
       124   0             -60.972271      686.14903      497.75573      497.75579      1062.9356     -0.18689516     0.36220155     4.4418855e-05  4.2439096      3.6753335      30.005141      468.01368    
       125   0             -60.972271      686.14909      497.75578      497.75582      1062.9357     -0.18686206     0.36214222     1.4105785e-05  4.2439096      3.6753335      30.005141      468.01368    
       126   0             -60.972271      686.14925      497.75591      497.75594      1062.9359     -0.18681574     0.36204325     7.9991869e-06  4.2439096      3.6753335      30.005141      468.01368    
       127   0             -60.972271      686.14928      497.75593      497.75596      1062.936      -0.1867932      0.3619942      7.0501969e-06  4.2439096      3.6753335      30.005141      468.01368    
       128   0             -60.972271      686.14928      497.75593      497.75596      1062.936      -0.18679497     0.36199938     4.1020345e-06  4.2439096      3.6753335      30.005141      468.01368    
       129   0             -60.972271      686.1493       497.75595      497.75597      1062.936      -0.18679936     0.36200983     2.2462255e-06  4.2439096      3.6753335      30.005141      468.01368    
       130   0             -60.972271      686.14926      497.75591      497.75594      1062.9359     -0.18679979     0.36200936     5.4740101e-06  4.2439096      3.6753335      30.005141      468.01368    
       131   0             -60.972271      686.14927      497.75592      497.75595      1062.9359     -0.18679892     0.36200691     6.6778535e-06  4.2439096      3.6753335      30.005141      468.01368    
       132   0             -60.972271      686.14927      497.75592      497.75595      1062.9359     -0.18679918     0.36200754     6.5590561e-06  4.2439096      3.6753335      30.005141      468.01368    
       133   0             -60.972271      686.14927      497.75592      497.75595      1062.9359     -0.18679935     0.36200801     6.3382631e-06  4.2439096      3.6753335      30.005141      468.01368    
       134   0             -60.972271      686.14927      497.75592      497.75595      1062.9359     -0.18679919     0.3620077      6.255475e-06   4.2439096      3.6753335      30.005141      468.01368    
       135   0             -60.972271      686.14927      497.75592      497.75595      1062.9359     -0.186799       0.36200724     6.33073e-06    4.2439096      3.6753335      30.005141      468.01368    
       136   0             -60.972271      686.14927      497.75592      497.75595      1062.9359     -0.18679879     0.36200675     6.4188268e-06  4.2439096      3.6753335      30.005141      468.01368    
       137   0             -60.972271      686.14927      497.75592      497.75595      1062.9359     -0.18679913     0.36200759     6.2269022e-06  4.2439096      3.6753335      30.005141      468.01368    
       138   0             -60.972271      686.14927      497.75592      497.75595      1062.9359     -0.18679912     0.36200754     6.2384162e-06  4.2439096      3.6753335      30.005141      468.01368    
       139   0             -60.972271      686.14927      497.75592      497.75595      1062.9359     -0.18679895     0.36200712     6.3379196e-06  4.2439096      3.6753335      30.005141      468.01368    
Loop time of 0.0101237 on 48 procs for 39 steps with 15 atoms

99.6% CPU use with 48 MPI tasks x no OpenMP threads

Minimization stats:
  Stopping criterion = force tolerance
  Energy initial, next-to-last, final = 
     -60.9719026046495  -60.9722714549141  -60.9722714549141
  Force two-norm initial, final = 0.039066082 6.3703434e-11
  Force max component initial, final = 0.015012849 2.6836089e-11
  Final line search alpha, max atom move = 1 2.6836089e-11
  Iterations, force evaluations = 39 77

MPI task timing breakdown:
Section |  min time  |  avg time  |  max time  |%varavg| %total
---------------------------------------------------------------
Pair    | 7.587e-06  | 0.0010427  | 0.0037052  |   4.8 | 10.30
Neigh   | 0          | 0          | 0          |   0.0 |  0.00
Comm    | 0.003127   | 0.0056143  | 0.007047   |   1.9 | 55.46
Output  | 0.001374   | 0.0014093  | 0.00153    |   0.1 | 13.92
Modify  | 0          | 0          | 0          |   0.0 |  0.00
Other   |            | 0.002057   |            |       | 20.32

Nlocal:         0.3125 ave           1 max           0 min
Histogram: 33 0 0 0 0 0 0 0 0 15
Nghost:        159.771 ave         171 max         145 min
Histogram: 5 7 4 8 0 0 0 0 12 12
Neighs:              0 ave           0 max           0 min
Histogram: 48 0 0 0 0 0 0 0 0 0
FullNghs:         14.5 ave          50 max           0 min
Histogram: 33 0 0 0 0 0 0 0 9 6

Total # of neighbors = 696
Ave neighs/atom = 46.4
Neighbor list builds = 0
Dangerous builds = 0
Reading restart file ...
  restart file = 24 Mar 2022, LAMMPS = 24 Mar 2022
  restoring atom style atomic from restart
  triclinic box = (-1.7291498e-05 -1.5255031e-05 -0.063528412) to (4.2438923 3.6753183 29.941612) with tilt (-2.1219546 0 0)
  2 by 2 by 12 MPI processor grid
  pair style nep stores no restart info
  15 atoms
  read_restart CPU = 0.052 seconds
Use the NEP4 potential with 3 atom types.
    type 0( Bi with Z = 83).
    type 1( Sb with Z = 51).
    type 2( Te with Z = 52).
    has universal ZBL with inner cutoff 1.25 A and outer cutoff 2.5 A.
    radial cutoff = 6 A.
    angular cutoff = 4 A.
    n_max_radial = 6.
    n_max_angular = 6.
    basis_size_radial = 8.
    basis_size_angular = 8.
    l_max_3body = 6.
    l_max_4body = 2.
    l_max_5body = 1.
    ANN = 56-60-1.
    number of neural network parameters = 10441.
    number of descriptor parameters = 1134.
    total number of parameters = 11575.
Changing box ...
  triclinic box = (-1.7291498e-05 -1.5255031e-05 -0.063528412) to (4.2438923 3.6753183 29.941612) with tilt (-2.1219546 3.0005141e-05 0)
Neighbor list info ...
  update every 1 steps, delay 0 steps, check yes
  max neighbors/atom: 2000, page size: 100000
  master list distance cutoff = 7
  ghost atom cutoff = 7
  1 neighbor lists, perpetual/occasional/extra = 1 0 0
  (1) pair nep, perpetual
      attributes: full, newton on
      pair build: full/nsq
      stencil: none
      bin: none
Setting up cg style minimization ...
  Unit style    : metal
  Current step  : 100
Per MPI rank memory allocation (min/avg/max) = 4.116 | 4.116 | 4.116 Mbytes
   Step          Temp          PotEng         Press           Pxx            Pyy            Pzz            Pxy            Pxz            Pyz             Lx             Ly             Lz           Volume    
       100   0             -60.971903     -72.975794     -72.688762     -72.525339     -73.71328       0.50775654    -1.1926629      0.18728053     4.2439096      3.6753335      30.005141      468.01368    
       101   0             -60.972242      703.36948      519.91247      519.75959      1070.4364     -0.40365213     1.0099567     -0.18651609     4.2439096      3.6753335      30.005141      468.01368    
       102   0             -60.972271      683.3          495.64273      495.55658      1058.7007     -0.15414096     0.41023543    -0.1052292      4.2439096      3.6753335      30.005141      468.01368    
       103   0             -60.972271      684.82674      496.75529      496.78159      1060.9433      0.23655903    -0.53518686     0.031196211    4.2439096      3.6753335      30.005141      468.01368    
       104   0             -60.972271      685.77913      497.46293      497.49023      1062.3842      0.246613      -0.55956171     0.03275093     4.2439096      3.6753335      30.005141      468.01368    
       105   0             -60.972271      686.13622      497.74474      497.74708      1062.9168      0.16426214    -0.36032133     0.0027104447   4.2439096      3.6753335      30.005141      468.01368    
       106   0             -60.972271      686.17822      497.77873      497.77708      1062.9788      0.15134252    -0.32906586    -0.0020755997   4.2439096      3.6753335      30.005141      468.01368    
       107   0             -60.972271      686.16815      497.76702      497.76985      1062.9676      0.16972524    -0.37357205     0.0035150747   4.2439096      3.6753335      30.005141      468.01368    
       108   0             -60.972271      686.2137       497.80921      497.80933      1063.0226      0.16344944    -0.35841258     0.00039707929  4.2439096      3.6753335      30.005141      468.01368    
       109   0             -60.972271      686.13733      497.7474       497.74487      1062.9197      0.15451503    -0.33679609    -0.0028125619   4.2439096      3.6753335      30.005141      468.01368    
       110   0             -60.972271      686.14477      497.75325      497.75187      1062.9292      0.15686706    -0.34247392    -0.0015040008   4.2439096      3.6753335      30.005141      468.01368    
       111   0             -60.972271      686.14753      497.75505      497.75451      1062.933       0.15842515    -0.34623281    -0.00055409965  4.2439096      3.6753335      30.005141      468.01368    
       112   0             -60.972271      686.14472      497.75202      497.75213      1062.93        0.15838099    -0.34610704     0.00010520769  4.2439096      3.6753335      30.005141      468.01368    
       113   0             -60.972271      686.15247      497.75834      497.75867      1062.9404      0.15807272    -0.34535213     0.00031640747  4.2439096      3.6753335      30.005141      468.01368    
       114   0             -60.972271      686.1503       497.75651      497.75682      1062.9376      0.15798762    -0.34514591     0.00029640525  4.2439096      3.6753335      30.005141      468.01368    
       115   0             -60.972271      686.14794      497.75481      497.75489      1062.9341      0.15834712    -0.34602571     6.910459e-05   4.2439096      3.6753335      30.005141      468.01368    
       116   0             -60.972271      686.14822      497.75546      497.75513      1062.9341      0.15837086    -0.34609512    -0.00034990639  4.2439096      3.6753335      30.005141      468.01368    
       117   0             -60.972271      686.14626      497.75375      497.7534       1062.9316      0.15809314    -0.34542116    -0.00037776074  4.2439096      3.6753335      30.005141      468.01368    
       118   0             -60.972271      686.148        497.75512      497.75487      1062.934       0.15804095    -0.34529194    -0.00029148522  4.2439096      3.6753335      30.005141      468.01368    
       119   0             -60.972271      686.14892      497.7557       497.75564      1062.9354      0.15812321    -0.34548588    -7.9944327e-05  4.2439096      3.6753335      30.005141      468.01368    
       120   0             -60.972271      686.14999      497.75639      497.75655      1062.937       0.15816244    -0.34557493     0.00014359063  4.2439096      3.6753335      30.005141      468.01368    
       121   0             -60.972271      686.1508       497.75699      497.75724      1062.9382      0.15805491    -0.34531126     0.00022966389  4.2439096      3.6753335      30.005141      468.01368    
       122   0             -60.972271      686.14992      497.75627      497.75652      1062.937       0.15805507    -0.34531159     0.00023214506  4.2439096      3.6753335      30.005141      468.01368    
       123   0             -60.972271      686.14933      497.7559       497.75606      1062.936       0.15817023    -0.34559383     0.00014437366  4.2439096      3.6753335      30.005141      468.01368    
       124   0             -60.972271      686.14927      497.75588      497.75599      1062.9359      0.15812896    -0.345495       9.3586405e-05  4.2439096      3.6753335      30.005141      468.01368    
       125   0             -60.972271      686.14924      497.75588      497.75595      1062.9359      0.15810474    -0.34543722     5.5616596e-05  4.2439096      3.6753335      30.005141      468.01368    
       126   0             -60.972271      686.14928      497.75592      497.75597      1062.9359      0.15810672    -0.34544276     2.919495e-05   4.2439096      3.6753335      30.005141      468.01368    
       127   0             -60.972271      686.14927      497.75593      497.75594      1062.9359      0.15811086    -0.34545394    -1.1283034e-05  4.2439096      3.6753335      30.005141      468.01368    
       128   0             -60.972271      686.14929      497.75595      497.75594      1062.936       0.1581026     -0.34543458    -3.5923798e-05  4.2439096      3.6753335      30.005141      468.01368    
       129   0             -60.972271      686.14929      497.75596      497.75595      1062.936       0.15809814    -0.34542358    -3.0917264e-05  4.2439096      3.6753335      30.005141      468.01368    
       130   0             -60.972271      686.14926      497.75591      497.75594      1062.9359      0.15810598    -0.34544161     6.1160378e-06  4.2439096      3.6753335      30.005141      468.01368    
       131   0             -60.972271      686.14927      497.75592      497.75596      1062.9359      0.15810771    -0.34544564     1.2061589e-05  4.2439096      3.6753335      30.005141      468.01368    
       132   0             -60.972271      686.14927      497.75592      497.75595      1062.9359      0.15810718    -0.34544438     1.1305933e-05  4.2439096      3.6753335      30.005141      468.01368    
       133   0             -60.972271      686.14927      497.75592      497.75595      1062.9359      0.1581066     -0.34544303     8.8500982e-06  4.2439096      3.6753335      30.005141      468.01368    
       134   0             -60.972271      686.14927      497.75592      497.75595      1062.9359      0.15810646    -0.34544275     6.4477728e-06  4.2439096      3.6753335      30.005141      468.01368    
       135   0             -60.972271      686.14927      497.75592      497.75595      1062.9359      0.15810663    -0.34544318     6.2424668e-06  4.2439096      3.6753335      30.005141      468.01368    
       136   0             -60.972271      686.14927      497.75592      497.75595      1062.9359      0.15810678    -0.34544355     6.1648671e-06  4.2439096      3.6753335      30.005141      468.01368    
       137   0             -60.972271      686.14927      497.75592      497.75595      1062.9359      0.15810637    -0.34544255     6.1619422e-06  4.2439096      3.6753335      30.005141      468.01368    
       138   0             -60.972271      686.14927      497.75592      497.75595      1062.9359      0.15810647    -0.34544279     6.3240592e-06  4.2439096      3.6753335      30.005141      468.01368    
       139   0             -60.972271      686.14927      497.75592      497.75595      1062.9359      0.15810665    -0.34544321     6.4361714e-06  4.2439096      3.6753335      30.005141      468.01368    
Loop time of 0.0102342 on 48 procs for 39 steps with 15 atoms

99.6% CPU use with 48 MPI tasks x no OpenMP threads

Minimization stats:
  Stopping criterion = force tolerance
  Energy initial, next-to-last, final = 
     -60.9719026043315   -60.972271454919   -60.972271454919
  Force two-norm initial, final = 0.039066141 4.8249589e-11
  Force max component initial, final = 0.015012849 1.9885149e-11
  Final line search alpha, max atom move = 1 1.9885149e-11
  Iterations, force evaluations = 39 77

MPI task timing breakdown:
Section |  min time  |  avg time  |  max time  |%varavg| %total
---------------------------------------------------------------
Pair    | 7.121e-06  | 0.0010175  | 0.0035511  |   4.7 |  9.94
Neigh   | 0          | 0          | 0          |   0.0 |  0.00
Comm    | 0.0033835  | 0.0055704  | 0.0069651  |   1.9 | 54.43
Output  | 0.0013823  | 0.0014144  | 0.0015334  |   0.1 | 13.82
Modify  | 0          | 0          | 0          |   0.0 |  0.00
Other   |            | 0.002232   |            |       | 21.81

Nlocal:         0.3125 ave           1 max           0 min
Histogram: 33 0 0 0 0 0 0 0 0 15
Nghost:        159.771 ave         171 max         145 min
Histogram: 5 7 4 8 0 0 0 0 12 12
Neighs:              0 ave           0 max           0 min
Histogram: 48 0 0 0 0 0 0 0 0 0
FullNghs:         14.5 ave          50 max           0 min
Histogram: 33 0 0 0 0 0 0 0 9 6

Total # of neighbors = 696
Ave neighs/atom = 46.4
Neighbor list builds = 0
Dangerous builds = 0
Reading restart file ...
  restart file = 24 Mar 2022, LAMMPS = 24 Mar 2022
  restoring atom style atomic from restart
  triclinic box = (-1.7291498e-05 -1.5255031e-05 -0.063528412) to (4.2438923 3.6753183 29.941612) with tilt (-2.1219546 0 0)
  2 by 2 by 12 MPI processor grid
  pair style nep stores no restart info
  15 atoms
  read_restart CPU = 0.004 seconds
Use the NEP4 potential with 3 atom types.
    type 0( Bi with Z = 83).
    type 1( Sb with Z = 51).
    type 2( Te with Z = 52).
    has universal ZBL with inner cutoff 1.25 A and outer cutoff 2.5 A.
    radial cutoff = 6 A.
    angular cutoff = 4 A.
    n_max_radial = 6.
    n_max_angular = 6.
    basis_size_radial = 8.
    basis_size_angular = 8.
    l_max_3body = 6.
    l_max_4body = 2.
    l_max_5body = 1.
    ANN = 56-60-1.
    number of neural network parameters = 10441.
    number of descriptor parameters = 1134.
    total number of parameters = 11575.
Changing box ...
WARNING: Triclinic box skew is large (../domain.cpp:228)
  triclinic box = (-1.7291498e-05 -1.5255031e-05 -0.063528412) to (4.2438923 3.6753183 29.941612) with tilt (-2.1219583 0 0)
Neighbor list info ...
  update every 1 steps, delay 0 steps, check yes
  max neighbors/atom: 2000, page size: 100000
  master list distance cutoff = 7
  ghost atom cutoff = 7
  1 neighbor lists, perpetual/occasional/extra = 1 0 0
  (1) pair nep, perpetual
      attributes: full, newton on
      pair build: full/nsq
      stencil: none
      bin: none
Setting up cg style minimization ...
  Unit style    : metal
  Current step  : 100
Per MPI rank memory allocation (min/avg/max) = 4.116 | 4.116 | 4.116 Mbytes
   Step          Temp          PotEng         Press           Pxx            Pyy            Pzz            Pxy            Pxz            Pyz             Lx             Ly             Lz           Volume    
       100   0             -60.971903     -72.975793     -72.688761     -72.525338     -73.71328       0.56149368    -0.84974616     0.18728136     4.2439096      3.6753335      30.005141      468.01368    
       101   0             -60.972242      703.37084      519.9135       519.76063      1070.4384     -0.23555407     1.0870846     -0.18651257     4.2439096      3.6753335      30.005141      468.01368    
       102   0             -60.972271      683.30083      495.64339      495.55724      1058.7019     -0.004272919    0.53274913    -0.10522864     4.2439096      3.6753335      30.005141      468.01368    
       103   0             -60.972271      684.83658      496.76244      496.78949      1060.9578      0.35525935    -0.33662103     0.032095109    4.2439096      3.6753335      30.005141      468.01368    
       104   0             -60.972271      685.79025      497.47089      497.49905      1062.4008      0.36648257    -0.36321418     0.033800594    4.2439096      3.6753335      30.005141      468.01368    
       105   0             -60.972271      686.13638      497.74478      497.74725      1062.9171      0.28991163    -0.17770647     0.0028636586   4.2439096      3.6753335      30.005141      468.01368    
       106   0             -60.972271      686.17835      497.77889      497.77713      1062.979       0.27758957    -0.14783309    -0.0022140503   4.2439096      3.6753335      30.005141      468.01368    
       107   0             -60.972271      686.16757      497.76648      497.76945      1062.9668      0.29591384    -0.19190934     0.0036839085   4.2439096      3.6753335      30.005141      468.01368    
       108   0             -60.972271      686.21371      497.80919      497.80944      1063.0225      0.29091923    -0.1795745      0.00055008884  4.2439096      3.6753335      30.005141      468.01368    
       109   0             -60.972271      686.1371       497.74725      497.74469      1062.9194      0.28236399    -0.15886174    -0.0028423105   4.2439096      3.6753335      30.005141      468.01368    
       110   0             -60.972271      686.1442       497.75281      497.75141      1062.9284      0.28409015    -0.16317202    -0.0015357541   4.2439096      3.6753335      30.005141      468.01368    
       111   0             -60.972271      686.14749      497.75504      497.7545       1062.9329      0.28523635    -0.16605725    -0.00055872896  4.2439096      3.6753335      30.005141      468.01368    
       112   0             -60.972271      686.14449      497.75183      497.75194      1062.9297      0.28467651    -0.16488974     0.00011010047  4.2439096      3.6753335      30.005141      468.01368    
       113   0             -60.972271      686.15253      497.75837      497.75871      1062.9405      0.28409291    -0.16357085     0.00032463162  4.2439096      3.6753335      30.005141      468.01368    
       114   0             -60.972271      686.15047      497.75664      497.75695      1062.9378      0.283963      -0.16325988     0.0002901684   4.2439096      3.6753335      30.005141      468.01368    
       115   0             -60.972271      686.1477       497.75461      497.75469      1062.9338      0.28459945    -0.16470164     7.2562743e-05  4.2439096      3.6753335      30.005141      468.01368    
       116   0             -60.972271      686.1482       497.75546      497.75514      1062.934       0.28502305    -0.16560615    -0.000333627    4.2439096      3.6753335      30.005141      468.01368    
       117   0             -60.972271      686.14607      497.75361      497.75326      1062.9313      0.28470064    -0.16484425    -0.00037279227  4.2439096      3.6753335      30.005141      468.01368    
       118   0             -60.972271      686.1479       497.75504      497.75478      1062.9339      0.28454598    -0.16450025    -0.00028981534  4.2439096      3.6753335      30.005141      468.01368    
       119   0             -60.972271      686.14895      497.75572      497.75567      1062.9355      0.28446963    -0.16436711    -7.489525e-05   4.2439096      3.6753335      30.005141      468.01368    
       120   0             -60.972271      686.14991      497.75634      497.75647      1062.9369      0.28434515    -0.16411772     0.00012226493  4.2439096      3.6753335      30.005141      468.01368    
       121   0             -60.972271      686.15069      497.75693      497.75713      1062.938       0.28416098    -0.16370139     0.00018937912  4.2439096      3.6753335      30.005141      468.01368    
       122   0             -60.972271      686.14983      497.75622      497.75644      1062.9368      0.28414181    -0.16365849     0.00019844095  4.2439096      3.6753335      30.005141      468.01368    
       123   0             -60.972271      686.14926      497.75585      497.756        1062.9359      0.28434837    -0.16412822     0.00013629999  4.2439096      3.6753335      30.005141      468.01368    
       124   0             -60.972271      686.14924      497.75586      497.75597      1062.9359      0.2843367     -0.16409067     8.7668341e-05  4.2439096      3.6753335      30.005141      468.01368    
       125   0             -60.972271      686.14922      497.75586      497.75593      1062.9359      0.284337      -0.16408332     4.93868e-05    4.2439096      3.6753335      30.005141      468.01368    
       126   0             -60.972271      686.14927      497.75591      497.75596      1062.9359      0.28436217    -0.16413693     2.469195e-05   4.2439096      3.6753335      30.005141      468.01368    
       127   0             -60.972271      686.14928      497.75593      497.75595      1062.9359      0.28438941    -0.16419555     7.04136e-07    4.2439096      3.6753335      30.005141      468.01368    
       128   0             -60.972271      686.14928      497.75594      497.75595      1062.936       0.28439009    -0.16419484    -1.0199991e-05  4.2439096      3.6753335      30.005141      468.01368    
       129   0             -60.972271      686.1493       497.75595      497.75596      1062.936       0.28438329    -0.16417912    -9.3703275e-06  4.2439096      3.6753335      30.005141      468.01368    
       130   0             -60.972271      686.14926      497.75591      497.75594      1062.9359      0.28437767    -0.16416942     7.0012237e-06  4.2439096      3.6753335      30.005141      468.01368    
       131   0             -60.972271      686.14927      497.75592      497.75595      1062.9359      0.28437742    -0.16416946     9.919471e-06   4.2439096      3.6753335      30.005141      468.01368    
       132   0             -60.972271      686.14927      497.75592      497.75595      1062.9359      0.28437712    -0.1641687      9.6086595e-06  4.2439096      3.6753335      30.005141      468.01368    
       133   0             -60.972271      686.14927      497.75592      497.75595      1062.9359      0.28437733    -0.16416898     8.6389977e-06  4.2439096      3.6753335      30.005141      468.01368    
       134   0             -60.972271      686.14927      497.75592      497.75595      1062.9359      0.28437797    -0.16417031     7.8464999e-06  4.2439096      3.6753335      30.005141      468.01368    
       135   0             -60.972271      686.14927      497.75592      497.75595      1062.9359      0.28437822    -0.16417089     7.8252748e-06  4.2439096      3.6753335      30.005141      468.01368    
       136   0             -60.972271      686.14927      497.75592      497.75595      1062.9359      0.28437844    -0.16417141     7.8497473e-06  4.2439096      3.6753335      30.005141      468.01368    
       137   0             -60.972271      686.14927      497.75592      497.75595      1062.9359      0.28437844    -0.16417141     7.8497473e-06  4.2439096      3.6753335      30.005141      468.01368    
Loop time of 0.00982224 on 48 procs for 37 steps with 15 atoms

99.6% CPU use with 48 MPI tasks x no OpenMP threads

Minimization stats:
  Stopping criterion = linesearch alpha is zero
  Energy initial, next-to-last, final = 
     -60.9719026044736  -60.9722714549288  -60.9722714549288
  Force two-norm initial, final = 0.03906612 2.1612516e-10
  Force max component initial, final = 0.015012849 7.2393647e-11
  Final line search alpha, max atom move = 0.5 3.6196823e-11
  Iterations, force evaluations = 37 73

MPI task timing breakdown:
Section |  min time  |  avg time  |  max time  |%varavg| %total
---------------------------------------------------------------
Pair    | 7.369e-06  | 0.0010109  | 0.0034161  |   4.7 | 10.29
Neigh   | 0          | 0          | 0          |   0.0 |  0.00
Comm    | 0.0032066  | 0.0055006  | 0.0067916  |   1.9 | 56.00
Output  | 0.0013193  | 0.0013415  | 0.0014621  |   0.1 | 13.66
Modify  | 0          | 0          | 0          |   0.0 |  0.00
Other   |            | 0.001969   |            |       | 20.05

Nlocal:         0.3125 ave           1 max           0 min
Histogram: 33 0 0 0 0 0 0 0 0 15
Nghost:        159.771 ave         171 max         145 min
Histogram: 5 7 4 8 0 0 0 0 12 12
Neighs:              0 ave           0 max           0 min
Histogram: 48 0 0 0 0 0 0 0 0 0
FullNghs:         14.5 ave          50 max           0 min
Histogram: 33 0 0 0 0 0 0 0 9 6

Total # of neighbors = 696
Ave neighs/atom = 46.4
Neighbor list builds = 0
Dangerous builds = 0
Reading restart file ...
  restart file = 24 Mar 2022, LAMMPS = 24 Mar 2022
  restoring atom style atomic from restart
  triclinic box = (-1.7291498e-05 -1.5255031e-05 -0.063528412) to (4.2438923 3.6753183 29.941612) with tilt (-2.1219546 0 0)
  2 by 2 by 12 MPI processor grid
  pair style nep stores no restart info
  15 atoms
  read_restart CPU = 0.074 seconds
Use the NEP4 potential with 3 atom types.
    type 0( Bi with Z = 83).
    type 1( Sb with Z = 51).
    type 2( Te with Z = 52).
    has universal ZBL with inner cutoff 1.25 A and outer cutoff 2.5 A.
    radial cutoff = 6 A.
    angular cutoff = 4 A.
    n_max_radial = 6.
    n_max_angular = 6.
    basis_size_radial = 8.
    basis_size_angular = 8.
    l_max_3body = 6.
    l_max_4body = 2.
    l_max_5body = 1.
    ANN = 56-60-1.
    number of neural network parameters = 10441.
    number of descriptor parameters = 1134.
    total number of parameters = 11575.
Changing box ...
  triclinic box = (-1.7291498e-05 -1.5255031e-05 -0.063528412) to (4.2438923 3.6753183 29.941612) with tilt (-2.1219509 0 0)
Neighbor list info ...
  update every 1 steps, delay 0 steps, check yes
  max neighbors/atom: 2000, page size: 100000
  master list distance cutoff = 7
  ghost atom cutoff = 7
  1 neighbor lists, perpetual/occasional/extra = 1 0 0
  (1) pair nep, perpetual
      attributes: full, newton on
      pair build: full/nsq
      stencil: none
      bin: none
Setting up cg style minimization ...
  Unit style    : metal
  Current step  : 100
Per MPI rank memory allocation (min/avg/max) = 4.116 | 4.116 | 4.116 Mbytes
   Step          Temp          PotEng         Press           Pxx            Pyy            Pzz            Pxy            Pxz            Pyz             Lx             Ly             Lz           Volume    
       100   0             -60.971903     -72.975796     -72.688765     -72.52534      -73.713283     -0.15674889    -0.23897787     0.18728304     4.2439096      3.6753335      30.005141      468.01368    
       101   0             -60.972242      703.37253      519.9148       519.76192      1070.4409     -0.77959494     1.2971421     -0.18651564     4.2439096      3.6753335      30.005141      468.01368    
       102   0             -60.972271      683.30187      495.64422      495.55807      1058.7033     -0.57143232     0.80105664    -0.10523104     4.2439096      3.6753335      30.005141      468.01368    
       103   0             -60.972271      684.84977      496.77204      496.80008      1060.9772     -0.2553074      0.038002144    0.033301073    4.2439096      3.6753335      30.005141      468.01368    
       104   0             -60.972271      685.80519      497.48158      497.51089      1062.4231     -0.24159533     0.0066040281   0.035204992    4.2439096      3.6753335      30.005141      468.01368    
       105   0             -60.972271      686.13665      497.74487      497.74751      1062.9176     -0.30881027     0.16995214     0.0030757917   4.2439096      3.6753335      30.005141      468.01368    
       106   0             -60.972271      686.17855      497.77914      497.77721      1062.9793     -0.31995214     0.19709882    -0.0024155915   4.2439096      3.6753335      30.005141      468.01368    
       107   0             -60.972271      686.16674      497.76572      497.7689       1062.9656     -0.30144475     0.15316255     0.0039311938   4.2439096      3.6753335      30.005141      468.01368    
       108   0             -60.972271      686.21357      497.80903      497.80947      1063.0222     -0.30419017     0.16060199     0.00076922476  4.2439096      3.6753335      30.005141      468.01368    
       109   0             -60.972271      686.13669      497.74699      497.74439      1062.9187     -0.31205414     0.17967068    -0.0028886142   4.2439096      3.6753335      30.005141      468.01368    
       110   0             -60.972271      686.14341      497.7522       497.75076      1062.9273     -0.31144968     0.17777995    -0.0015833225   4.2439096      3.6753335      30.005141      468.01368    
       111   0             -60.972271      686.14742      497.755        497.75446      1062.9328     -0.31110165     0.17657917    -0.00056313241  4.2439096      3.6753335      30.005141      468.01368    
       112   0             -60.972271      686.1442       497.75159      497.7517       1062.9293     -0.31270498     0.17987389     0.00011623703  4.2439096      3.6753335      30.005141      468.01368    
       113   0             -60.972271      686.15257      497.7584       497.75874      1062.9406     -0.3138583      0.18235913     0.00032836497  4.2439096      3.6753335      30.005141      468.01368    
       114   0             -60.972271      686.15068      497.75682      497.75712      1062.9381     -0.31405237     0.18281603     0.00027166981  4.2439096      3.6753335      30.005141      468.01368    
       115   0             -60.972271      686.14739      497.75435      497.75443      1062.9334     -0.31289074     0.18030585     7.5021917e-05  4.2439096      3.6753335      30.005141      468.01368    
       116   0             -60.972271      686.14824      497.75549      497.7552       1062.934      -0.31172817     0.17786682    -0.00029838139  4.2439096      3.6753335      30.005141      468.01368    
       117   0             -60.972271      686.14588      497.75345      497.75312      1062.9311     -0.31211861     0.17876194    -0.0003557404   4.2439096      3.6753335      30.005141      468.01368    
       118   0             -60.972271      686.14784      497.755        497.75475      1062.9338     -0.31248102     0.17953885    -0.00027930619  4.2439096      3.6753335      30.005141      468.01368    
       119   0             -60.972271      686.14909      497.75583      497.75579      1062.9357     -0.31287455     0.18032333    -5.4186524e-05  4.2439096      3.6753335      30.005141      468.01368    
       120   0             -60.972271      686.14968      497.75619      497.75628      1062.9366     -0.31316809     0.180924       7.6378521e-05  4.2439096      3.6753335      30.005141      468.01368    
       121   0             -60.972271      686.15024      497.75663      497.75675      1062.9373     -0.31338912     0.18140853     9.7186308e-05  4.2439096      3.6753335      30.005141      468.01368    
       122   0             -60.972271      686.14941      497.75595      497.75608      1062.9362     -0.31344361     0.18152751     0.00010348037  4.2439096      3.6753335      30.005141      468.01368    
       123   0             -60.972271      686.14899      497.75567      497.75578      1062.9355     -0.313178       0.18093791     9.6156276e-05  4.2439096      3.6753335      30.005141      468.01368    
       124   0             -60.972271      686.14908      497.75576      497.75584      1062.9357     -0.31316237     0.18091981     5.5818185e-05  4.2439096      3.6753335      30.005141      468.01368    
       125   0             -60.972271      686.14912      497.7558       497.75584      1062.9357     -0.31313445     0.18087139     2.2413743e-05  4.2439096      3.6753335      30.005141      468.01368    
       126   0             -60.972271      686.14926      497.75591      497.75594      1062.9359     -0.31308808     0.1807724      1.1659066e-05  4.2439096      3.6753335      30.005141      468.01368    
       127   0             -60.972271      686.14928      497.75593      497.75595      1062.936      -0.31306353     0.18071918     7.8739774e-06  4.2439096      3.6753335      30.005141      468.01368    
       128   0             -60.972271      686.14928      497.75593      497.75596      1062.936      -0.31306525     0.18072449     4.3547038e-06  4.2439096      3.6753335      30.005141      468.01368    
       129   0             -60.972271      686.1493       497.75595      497.75597      1062.936      -0.31307038     0.18073661     2.747355e-06   4.2439096      3.6753335      30.005141      468.01368    
       130   0             -60.972271      686.14926      497.75591      497.75594      1062.9359     -0.31307128     0.18073683     7.0534267e-06  4.2439096      3.6753335      30.005141      468.01368    
       131   0             -60.972271      686.14927      497.75592      497.75595      1062.9359     -0.31307058     0.18073476     8.2701533e-06  4.2439096      3.6753335      30.005141      468.01368    
       132   0             -60.972271      686.14927      497.75592      497.75595      1062.9359     -0.31307088     0.18073548     8.1202852e-06  4.2439096      3.6753335      30.005141      468.01368    
       133   0             -60.972271      686.14927      497.75592      497.75595      1062.9359     -0.313071       0.18073586     7.8457244e-06  4.2439096      3.6753335      30.005141      468.01368    
       134   0             -60.972271      686.14927      497.75592      497.75595      1062.9359     -0.31307073     0.18073532     7.7286729e-06  4.2439096      3.6753335      30.005141      468.01368    
       135   0             -60.972271      686.14927      497.75592      497.75595      1062.9359     -0.31307052     0.18073483     7.7914982e-06  4.2439096      3.6753335      30.005141      468.01368    
       136   0             -60.972271      686.14927      497.75592      497.75595      1062.9359     -0.31307031     0.18073433     7.8694202e-06  4.2439096      3.6753335      30.005141      468.01368    
       137   0             -60.972271      686.14927      497.75592      497.75595      1062.9359     -0.31307031     0.18073433     7.8694202e-06  4.2439096      3.6753335      30.005141      468.01368    
Loop time of 0.00977659 on 48 procs for 37 steps with 15 atoms

99.5% CPU use with 48 MPI tasks x no OpenMP threads

Minimization stats:
  Stopping criterion = linesearch alpha is zero
  Energy initial, next-to-last, final = 
     -60.9719026045919  -60.9722714549204  -60.9722714549204
  Force two-norm initial, final = 0.039066097 2.1565885e-10
  Force max component initial, final = 0.015012849 7.4181938e-11
  Final line search alpha, max atom move = 0.5 3.7090969e-11
  Iterations, force evaluations = 37 73

MPI task timing breakdown:
Section |  min time  |  avg time  |  max time  |%varavg| %total
---------------------------------------------------------------
Pair    | 6.66e-06   | 0.00096206 | 0.0032852  |   0.0 |  9.84
Neigh   | 0          | 0          | 0          |   0.0 |  0.00
Comm    | 0.0031799  | 0.0052872  | 0.0065608  |   1.8 | 54.08
Output  | 0.001321   | 0.0013514  | 0.0014484  |   0.1 | 13.82
Modify  | 0          | 0          | 0          |   0.0 |  0.00
Other   |            | 0.002176   |            |       | 22.26

Nlocal:         0.3125 ave           1 max           0 min
Histogram: 33 0 0 0 0 0 0 0 0 15
Nghost:        159.771 ave         171 max         145 min
Histogram: 5 7 4 8 0 0 0 0 12 12
Neighs:              0 ave           0 max           0 min
Histogram: 48 0 0 0 0 0 0 0 0 0
FullNghs:         14.5 ave          50 max           0 min
Histogram: 33 0 0 0 0 0 0 0 9 6

Total # of neighbors = 696
Ave neighs/atom = 46.4
Neighbor list builds = 0
Dangerous builds = 0
=========================================
Components of the Elastic Constant Tensor
=========================================
Elastic Constant C11all = 71.8139006080019 GPa
Elastic Constant C22all = 71.8138852172524 GPa
Elastic Constant C33all = 30.7592922579934 GPa
Elastic Constant C12all = 12.0690259019011 GPa
Elastic Constant C13all = 18.413560295101 GPa
Elastic Constant C23all = 18.4135436691486 GPa
Elastic Constant C44all = 35.3725176430848 GPa
Elastic Constant C55all = 35.3725166814312 GPa
Elastic Constant C66all = 29.8724375812419 GPa
Elastic Constant C14all = -17.2452777431457 GPa
Elastic Constant C15all = -5.23392650392597e-06 GPa
Elastic Constant C16all = 4.08938950861339e-06 GPa
Elastic Constant C24all = 17.2452805399693 GPa
Elastic Constant C25all = 6.9265578081651e-06 GPa
Elastic Constant C26all = -1.67500785768805e-06 GPa
Elastic Constant C34all = 1.42550952344719e-06 GPa
Elastic Constant C35all = 1.21289898666645e-05 GPa
Elastic Constant C36all = -5.89325962770636e-06 GPa
Elastic Constant C45all = -5.77594094466054e-06 GPa
Elastic Constant C46all = 1.35135538460588e-06 GPa
Elastic Constant C56all = -17.2452831136867 GPa
=========================================
Average elastic properties (3D non-cubic)
Isotropic Voigt averages from full C_ij
=========================================
Bulk Modulus (Voigt)      = 30.2421486461721 GPa
Shear Modulus (Voigt)     = 28.4895575956247 GPa
Young Modulus (Voigt)   = 65.0438589716221 GPa
Poisson Ratio (Voigt)     = 0.141538592751108
Total wall time: 0:00:04
