# Converted from /home/IITB/multiscale-mechanics/ashwani12/ashwani/Bi2Te3_Sb2Te3/nep/elastic_const/energy_strain/dft/Sb2Te3/more_relax/scf/espresso.pwi | 1x1x1 supercell | Bi=1 Sb=2 Te=3

15 atoms
3 atom types

0.000000 4.243875 xlo xhi
0.000000 3.675303 ylo yhi
0.000000 29.878084 zlo zhi
-2.121937 0.000000 0.000000 xy xz yz

Masses

1 208.980  # Bi
2 121.760  # Sb
3 127.600  # Te

Atoms  # atomic

1 2 -0.000000 2.450202 1.931576
2 2 -0.000000 2.450202 8.027788
3 2 0.000000 0.000000 11.890891
4 2 0.000000 0.000000 17.987193
5 2 2.121937 1.225101 21.850297
6 2 2.121937 1.225101 27.946508
7 3 0.000000 0.000000 6.322366
8 3 2.121937 1.225101 3.636971
9 3 0.000000 0.000000 0.000000
10 3 2.121937 1.225101 16.281783
11 3 -0.000000 2.450202 13.596301
12 3 2.121937 1.225101 9.959348
13 3 -0.000000 2.450202 26.241113
14 3 0.000000 0.000000 23.555718
15 3 -0.000000 2.450202 19.918736
