&CONTROL
/
&SYSTEM
   ntyp             = 2
   nat              = 15
   ibrav            = 0
/
&ELECTRONS
/
&IONS
/
&CELL
/
&FCP
/
&RISM
/
ATOMIC_SPECIES
Sb 121.76 Sb.UPF
Te 127.6 Te.UPF

K_POINTS gamma

CELL_PARAMETERS angstrom
4.24387128400000 -0.00000000000000 -0.00000000000000
-2.12193564200000 3.67530034300000 -0.00000000000000
-0.00000000000000 -0.00000000000000 29.87577922700000

ATOMIC_POSITIONS crystal
Sb 0.3333333299 0.6666666699 0.0646561353  
Sb 0.3333333299 0.6666666699 0.2686772622  
Sb 0.0000000000 0.0000000000 0.3979877564  
Sb 0.0000000000 0.0000000000 0.6020122436  
Sb 0.6666666700 0.3333333300 0.7313227378  
Sb 0.6666666700 0.3333333300 0.9353438647  
Te 0.0000000000 0.0000000000 0.2116145964  
Te 0.6666666700 0.3333333300 0.1217188903  
Te 0.0000000000 0.0000000000 0.0000000000  
Te 0.6666666700 0.3333333300 0.5449495861  
Te 0.3333333299 0.6666666699 0.4550504139  
Te 0.6666666700 0.3333333300 0.3333324316  
Te 0.3333333299 0.6666666699 0.8782811097  
Te 0.0000000000 0.0000000000 0.7883854036  
Te 0.3333333299 0.6666666699 0.6666675684  

