! Set=C11  delta=delta_+0.004  [SCF from relaxed]
&CONTROL
   calculation      = 'scf'
   verbosity        = 'high'
   restart_mode     = 'from_scratch'
   tstress          = .true.
   tprnfor          = .true.
   outdir           = './'
   etot_conv_thr    = 1e-10
   forc_conv_thr    = 1e-10
   disk_io          = 'none'
   pseudo_dir       = '/home/IITB/multiscale-mechanics/amit.k.singh/PP/PBE_ONCV/'
/
&SYSTEM
   ibrav            = 0
   nat              = 15
   ntyp             = 2
   ecutwfc          = 120.0
   occupations      = 'smearing'
   degauss          = 0.01
   smearing         = 'mp'
   vdw_corr         = 'grimme-d3'
   dftd3_version    = 4
   dftd3_threebody  = .true.
/
&ELECTRONS
   electron_maxstep = 400
   conv_thr         = 1e-12
   mixing_beta      = 0.3
/
&IONS
/
&CELL
/
&FCP
/
&RISM
/
ATOMIC_SPECIES
Bi 208.9804 Bi.UPF
Te 127.6 Te.UPF

K_POINTS automatic
12 12 1  0 0 0

CELL_PARAMETERS angstrom
4.40745416032800 0.00000000000000 0.00000000000000
-2.20372707916000 3.81696726891200 0.00000000000000
0.00000000000000 0.00000000000000 30.24285379700000

ATOMIC_POSITIONS angstrom
Bi  -0.0000000000  0.0000000000  12.0984650103
Bi  -0.0000000000  -0.0000000000  18.1443887863
Bi  2.2037270799  1.2723224227  22.1793060826
Bi  2.2037270799  1.2723224227  28.2254268881
Bi  0.0000000000  2.5446448456  2.0174269086
Bi  0.0000000000  2.5446448456  8.0635477140
Te  -0.0000000000  0.0000000000  6.3390602271
Te  -0.0000000000  0.0000000000  23.9037935696
Te  2.2037270799  1.2723224227  16.4199379077
Te  2.2037270799  1.2723224227  3.7419172835
Te  0.0000000000  2.5446448456  26.5009365132
Te  0.0000000000  2.5446448456  13.8229158890
Te  0.0000000000  -0.0000000000  0.0000000000
Te  2.2037270799  1.2723224227  10.0810541397
Te  0.0000000000  2.5446448456  20.1617996570
