&CONTROL
/
&SYSTEM
   ntyp             = 2
   nat              = 5
   ibrav            = 0
/
&ELECTRONS
/
&IONS
/
&CELL
/
&FCP
/
&RISM
/
ATOMIC_SPECIES
Bi 208.9804 Bi.UPF
Te 127.6 Te.UPF

K_POINTS gamma

CELL_PARAMETERS angstrom
10.39241599700000 -0.03451007800000 -0.02052510600000
9.47927281900000 4.25991642100000 -0.02052510400000
9.47927281900000 2.01562030800000 3.75294337400000

ATOMIC_POSITIONS crystal
Bi 0.5998604823 0.5998604794 0.5998604799  
Bi 0.4001395176 0.4001395208 0.4001395201  
Te 0.7907071458 0.7907071477 0.7907071484  
Te 0.0000000000 0.0000000000 0.0000000000  
Te 0.2092928541 0.2092928524 0.2092928516  

