Bi Te
 1.0000000000000000
     4.3898945820000002    0.0000000000000000    0.0000000000000000
    -2.1949472900000000    3.8017602280000000   -0.0000000000000000
     0.0000000000000000    0.0000000000000000   30.2428537969999987
 Bi  Te 
   6   9
Cartesian
  0.0000000000000000  0.0000000000000000 12.1011801581000000
  0.0000000000000000  0.0000000000000000 18.1416736384999986
  2.1949472907000001  1.2672534091000001 22.1820561329000014
  2.1949472907000001  1.2672534091000001 28.2227221626000002
  0.0000000000000000  2.5345068183000001  2.0201316341000002
  0.0000000000000000  2.5345068183000001  8.0607976637000007
  0.0000000000000000  0.0000000000000000  6.3295417669000003
  0.0000000000000000  0.0000000000000000 23.9133120298000001
  2.1949472907000001  1.2672534091000001 16.4104445293999994
  2.1949472907000001  1.2672534091000001  3.7513121295000000
  0.0000000000000000  2.5345068183000001 26.4915416671999999
  0.0000000000000000  2.5345068183000001 13.8324092672999992
  0.0000000000000000  0.0000000000000000  0.0000000000000000
  2.1949472907000001  1.2672534091000001 10.0810437429000004
  0.0000000000000000  2.5345068183000001 20.1618100538000000
