! Set=C13p  delta=-0.004000
&CONTROL
   calculation      = 'relax'
   verbosity        = 'high'
   restart_mode     = 'from_scratch'
   tstress          = .true.
   tprnfor          = .true.
   outdir           = './'
   etot_conv_thr    = 1e-10
   forc_conv_thr    = 1e-10
   disk_io          = 'none'
   pseudo_dir       = '/home/IITB/multiscale-mechanics/amit.k.singh/PP/PBE_ONCV/'
/
&SYSTEM
   ibrav            = 0
   nat              = 15
   ntyp             = 2
   ecutwfc          = 120.0
   occupations      = 'smearing'
   degauss          = 0.01
   smearing         = 'mp'
   vdw_corr         = 'grimme-d3'
   dftd3_version    = 4
   dftd3_threebody  = .true.
/
&ELECTRONS
   electron_maxstep = 400
   conv_thr         = 1e-12
   mixing_beta      = 0.3
/
&IONS
/
&CELL
/
&FCP
/
&RISM
/
ATOMIC_SPECIES
Bi 208.9804 Bi.UPF
Te 127.6 Te.UPF

K_POINTS automatic
12 12 1  0 0 0

CELL_PARAMETERS angstrom
4.37233500367200 0.00000000000000 0.00000000000000
-2.18616750084000 3.80176022800000 0.00000000000000
0.00000000000000 0.00000000000000 30.12188238181200

ATOMIC_POSITIONS angstrom
Bi 0.0000000000 0.0000000000 12.0527754375  
Bi 0.0000000000 0.0000000000 18.0691069439  
Bi 2.1861675015 1.2672534091 22.0933279084  
Bi 2.1861675015 1.2672534091 28.1098312739  
Bi 0.0000000000 2.5345068183 2.0120511076  
Bi 0.0000000000 2.5345068183 8.0285544730  
Te 0.0000000000 0.0000000000 6.3042235998  
Te 0.0000000000 0.0000000000 23.8176587817  
Te 2.1861675015 1.2672534091 16.3448027513  
Te 2.1861675015 1.2672534091 3.7363068810  
Te 0.0000000000 2.5345068183 26.3855755005  
Te 0.0000000000 2.5345068183 13.7770796302  
Te 0.0000000000 0.0000000000 0.0000000000  
Te 2.1861675015 1.2672534091 10.0407195679  
Te 0.0000000000 2.5345068183 20.0811628136  

