LAMMPS (24 Mar 2022)
# Compute elastic constant tensor for a crystal
#
# Written by Aidan Thompson (Sandia, athomps@sandia.gov)
#
#  This script uses the following three include files.
#
#   init.mod      (must be modified for different crystal structures)
# 	       	  Define units, deformation parameters and initial
#		  configuration of the atoms and simulation cell.
#
#
#   potential.mod    (must be modified for different pair styles)
# 		     Define pair style and other attributes
#		     not stored in restart file
#
#
#   displace.mod    (displace.mod should not need to be modified)
# 		    Perform positive and negative box displacements
# 		    in direction ${dir} and size ${up}.
# 		    It uses the resultant changes
#		    in stress to compute one
# 		    row of the elastic stiffness tensor
#
#		    Inputs variables:
#		    	   dir = the Voigt deformation component
#		    		    (1,2,3,4,5,6)
#		    Global constants:
#       	    	   up = the deformation magnitude (strain units)
#       		   cfac = conversion from LAMMPS pressure units to
#               	   output units for elastic constants
#
#
#  To run this on a different system, it should only be necessary to
#  modify the files init.mod and potential.mod. In order to calculate
#  the elastic constants correctly, care must be taken to specify
#  the correct units in init.mod (units, cfac and cunits). It is also
#  important to verify that the minimization of energy w.r.t atom
#  positions in the deformed cell is fully converged.
#  One indication of this is that the elastic constants are insensitive
#  to the choice of the variable ${up} in init.mod. Another is to check
#  the final max and two-norm forces reported in the log file. If you know
#  that minimization is not required, you can set maxiter = 0.0 in
#  init.mod.
#

include init.mod
# NOTE: This script can be modified for different atomic structures,
# units, etc. See in.elastic for more info.
#

# Define the finite deformation size. Try several values of this
# variable to verify that results do not depend on it.
variable up equal 1.0e-6

# Define the amount of random jiggle for atoms
# This prevents atoms from staying on saddle points
variable atomjiggle equal 1.0e-5

# Uncomment one of these blocks, depending on what units
# you are using in LAMMPS and for output

# metal units, elastic constants in eV/A^3
#units		metal
#variable cfac equal 6.2414e-7
#variable cunits string eV/A^3

# metal units, elastic constants in GPa
units		metal
variable cfac equal 1.0e-4
variable cunits string GPa

# real units, elastic constants in GPa
#units		real
#variable cfac equal 1.01325e-4
#variable cunits string GPa

# Define minimization parameters
variable etol equal 0.0
variable ftol equal 1.0e-18
variable maxiter equal 100
variable maxeval equal 1000
variable dmax equal 1.0e-2

# generate the box and atom positions using a diamond lattice

boundary	p p p

box tilt large
read_data       espresso_2x2x1_80pct.lmp
Reading data file ...
  triclinic box = (0 0 0) to (8.779789 7.60352 30.242854) with tilt (-4.389895 0 0)
WARNING: Triclinic box skew is large (../domain.cpp:228)
  3 by 2 by 8 MPI processor grid
  reading atoms ...
  60 atoms
  read_data CPU = 0.211 seconds

# realistic masses
mass 1 208.98040   # Bi
mass 2 121.76000   # Sb
mass 3 127.60000   # Te

include potential.mod
# NOTE: This script can be modified for different pair styles
# See in.elastic for more info.

# Choose potential
#pair_style	sw
#pair_coeff * * Si.sw Si

# MTP potential
pair_style  nep
pair_coeff  * *  nep_y2026_m04_d08_h20_m24_s14_generation100000.txt  Bi Sb Te


# Setup neighbor style
neighbor 1.0 nsq
neigh_modify once no every 1 delay 0 check yes

# Setup minimization style
min_style	     cg
min_modify	     dmax ${dmax} line quadratic
min_modify	     dmax 0.01 line quadratic

# Setup output
thermo		1
thermo_style custom step temp pe press pxx pyy pzz pxy pxz pyz lx ly lz vol
thermo_modify norm no

# Compute initial state
fix 3 all box/relax  aniso 0.0
minimize ${etol} ${ftol} ${maxiter} ${maxeval}
minimize 0 ${ftol} ${maxiter} ${maxeval}
minimize 0 1e-18 ${maxiter} ${maxeval}
minimize 0 1e-18 100 ${maxeval}
minimize 0 1e-18 100 1000
Neighbor list info ...
  update every 1 steps, delay 0 steps, check yes
  max neighbors/atom: 2000, page size: 100000
  master list distance cutoff = 7
  ghost atom cutoff = 7
  1 neighbor lists, perpetual/occasional/extra = 1 0 0
  (1) pair nep, perpetual
      attributes: full, newton on
      pair build: full/nsq
      stencil: none
      bin: none
Per MPI rank memory allocation (min/avg/max) = 4.085 | 4.085 | 4.085 Mbytes
   Step          Temp          PotEng         Press           Pxx            Pyy            Pzz            Pxy            Pxz            Pyz             Lx             Ly             Lz           Volume    
         0   0             -240.2018      -33129.556     -32614.845     -32667.266     -34106.557     -3.8815085     -15.098756      3.7099214      8.779789       7.60352        30.242854      2018.9313    
         1   0             -240.21396     -33003.359     -32493.554     -32545.726     -33970.796     -3.9067947     -15.048062      3.712631       8.7789494      7.6027917      30.23983       2018.343     
         2   0             -240.22607     -32876.977     -32372.076     -32424         -33834.854     -3.9320582     -14.997171      3.7153198      8.7781096      7.6020633      30.236805      2017.7548    
         3   0             -240.23813     -32750.41      -32250.412     -32302.087     -33698.729     -3.9572991     -14.946082      3.717988       8.7772696      7.6013346      30.233781      2017.1665    
         4   0             -240.25015     -32623.657     -32128.562     -32179.988     -33562.423     -3.9825173     -14.894797      3.720636       8.7764294      7.6006058      30.230757      2016.5783    
         5   0             -240.26212     -32496.719     -32006.524     -32057.7       -33425.934     -4.0077128     -14.843315      3.7232641      8.7755889      7.5998768      30.227733      2015.9901    
         6   0             -240.27405     -32369.595     -31884.298     -31935.225     -33289.263     -4.0328856     -14.791635      3.7258725      8.7747482      7.5991476      30.224708      2015.4019    
         7   0             -240.28593     -32242.285     -31761.885     -31812.562     -33152.407     -4.0580356     -14.739759      3.7284615      8.7739073      7.5984182      30.221684      2014.8137    
         8   0             -240.29776     -32114.787     -31639.282     -31689.71      -33015.368     -4.0831627     -14.687687      3.7310314      8.7730662      7.5976886      30.21866       2014.2255    
         9   0             -240.30954     -31987.101     -31516.491     -31566.669     -32878.145     -4.108267      -14.635417      3.7335826      8.7722249      7.5969588      30.215635      2013.6373    
        10   0             -240.32128     -31859.228     -31393.51      -31443.437     -32740.736     -4.1333485     -14.582951      3.7361153      8.7713833      7.5962288      30.212611      2013.0492    
        11   0             -240.33297     -31731.166     -31270.339     -31320.016     -32603.142     -4.158407      -14.530287      3.7386297      8.7705415      7.5954986      30.209587      2012.461     
        12   0             -240.34461     -31602.915     -31146.977     -31196.404     -32465.363     -4.1834426     -14.477428      3.7411262      8.7696994      7.5947682      30.206563      2011.8729    
        13   0             -240.3562      -31474.474     -31023.425     -31072.601     -32327.397     -4.2084551     -14.424371      3.7436051      8.7688571      7.5940376      30.203538      2011.2847    
        14   0             -240.36775     -31345.844     -30899.681     -30948.606     -32189.244     -4.2334447     -14.371118      3.7460666      8.7680146      7.5933068      30.200514      2010.6966    
        15   0             -240.37925     -31217.023     -30775.745     -30824.419     -32050.904     -4.2584111     -14.317669      3.748511       8.7671719      7.5925758      30.19749       2010.1085    
        16   0             -240.3907      -31088.011     -30651.617     -30700.04      -31912.377     -4.2833544     -14.264023      3.7509386      8.7663289      7.5918446      30.194465      2009.5204    
        17   0             -240.40211     -30958.808     -30527.296     -30575.467     -31773.661     -4.3082746     -14.21018       3.7533497      8.7654856      7.5911132      30.191441      2008.9323    
        18   0             -240.41347     -30829.413     -30402.781     -30450.701     -31634.756     -4.3331715     -14.156141      3.7557445      8.7646421      7.5903815      30.188417      2008.3441    
        19   0             -240.42478     -30699.825     -30278.072     -30325.741     -31495.663     -4.3580452     -14.101906      3.7581233      8.7637984      7.5896497      30.185393      2007.756     
        20   0             -240.43604     -30570.045     -30153.169     -30200.586     -31356.379     -4.3828955     -14.047474      3.7604864      8.7629544      7.5889176      30.182368      2007.1679    
        21   0             -240.44725     -30440.071     -30028.071     -30075.236     -31216.905     -4.4077225     -13.992846      3.7628341      8.7621102      7.5881854      30.179344      2006.5798    
        22   0             -240.45842     -30309.903     -29902.778     -29949.69      -31077.241     -4.432526      -13.938021      3.7651665      8.7612658      7.5874529      30.17632       2005.9917    
        23   0             -240.46954     -30179.541     -29777.288     -29823.948     -30937.385     -4.4573061     -13.883001      3.7674841      8.760421       7.5867202      30.173295      2005.4036    
        24   0             -240.48061     -30048.983     -29651.603     -29698.01      -30797.338     -4.4820626     -13.827784      3.769787       8.7595761      7.5859873      30.170271      2004.8155    
        25   0             -240.49163     -29918.231     -29525.72      -29571.874     -30657.098     -4.5067955     -13.772371      3.7720754      8.7587308      7.5852541      30.167247      2004.2274    
        26   0             -240.50261     -29787.282     -29399.639     -29445.541     -30516.665     -4.5315047     -13.716762      3.7743497      8.7578853      7.5845208      30.164223      2003.6393    
        27   0             -240.51353     -29656.136     -29273.361     -29319.009     -30376.039     -4.5561902     -13.660956      3.7766102      8.7570396      7.5837872      30.161198      2003.0512    
        28   0             -240.52441     -29524.794     -29146.883     -29192.279     -30235.22      -4.5808519     -13.604955      3.7788569      8.7561936      7.5830534      30.158174      2002.463     
        29   0             -240.53524     -29393.254     -29020.207     -29065.349     -30094.205     -4.6054897     -13.548758      3.7810903      8.7553473      7.5823193      30.15515       2001.8749    
        30   0             -240.54602     -29261.516     -28893.331     -28938.22      -29952.996     -4.6301035     -13.492365      3.7833105      8.7545007      7.581585       30.152125      2001.2868    
        31   0             -240.55676     -29129.579     -28766.255     -28810.89      -29811.592     -4.6546934     -13.435776      3.7855177      8.7536539      7.5808505      30.149101      2000.6986    
        32   0             -240.56744     -28997.442     -28638.977     -28683.359     -29669.991     -4.6792591     -13.378991      3.7877123      8.7528068      7.5801158      30.146077      2000.1105    
        33   0             -240.57808     -28865.106     -28511.499     -28555.626     -29528.194     -4.7038007     -13.32201       3.7898944      8.7519595      7.5793808      30.143053      1999.5223    
        34   0             -240.58867     -28732.57      -28383.818     -28427.692     -29386.199     -4.728318      -13.264834      3.7920643      8.7511118      7.5786456      30.140028      1998.9342    
        35   0             -240.59921     -28599.832     -28255.935     -28299.554     -29244.007     -4.752811      -13.207462      3.7942222      8.7502639      7.5779101      30.137004      1998.346     
        36   0             -240.6097      -28466.893     -28127.849     -28171.214     -29101.617     -4.7772796     -13.149894      3.7963683      8.7494157      7.5771744      30.13398       1997.7578    
        37   0             -240.62014     -28333.752     -27999.559     -28042.669     -28959.027     -4.8017236     -13.09213       3.7985028      8.7485672      7.5764385      30.130955      1997.1696    
        38   0             -240.63054     -28200.408     -27871.065     -27913.92      -28816.239     -4.826143      -13.034171      3.800626       8.7477185      7.5757023      30.127931      1996.5813    
        39   0             -240.64088     -28066.861     -27742.366     -27784.967     -28673.25      -4.8505377     -12.976016      3.802738       8.7468694      7.5749659      30.124907      1995.9931    
        40   0             -240.65118     -27933.11      -27613.462     -27655.807     -28530.06      -4.8749077     -12.917666      3.8048391      8.7460201      7.5742292      30.121883      1995.4048    
        41   0             -240.66143     -27799.154     -27484.351     -27526.441     -28386.67      -4.8992527     -12.859121      3.8069295      8.7451704      7.5734922      30.118858      1994.8166    
        42   0             -240.67163     -27664.993     -27355.034     -27396.869     -28243.078     -4.9235727     -12.80038       3.8090093      8.7443205      7.572755       30.115834      1994.2283    
        43   0             -240.68178     -27530.627     -27225.509     -27267.089     -28099.283     -4.9478676     -12.741444      3.8110788      8.7434703      7.5720176      30.11281       1993.64      
        44   0             -240.69188     -27396.054     -27095.777     -27137.1       -27955.285     -4.9721373     -12.682312      3.8131381      8.7426197      7.5712799      30.109785      1993.0516    
        45   0             -240.70193     -27261.274     -26965.835     -27006.903     -27811.084     -4.9963816     -12.622985      3.8151874      8.7417689      7.5705419      30.106761      1992.4633    
        46   0             -240.71193     -27126.287     -26835.685     -26876.497     -27666.678     -5.0206005     -12.563463      3.8172269      8.7409177      7.5698036      30.103737      1991.8749    
        47   0             -240.72189     -26991.091     -26705.325     -26745.881     -27522.067     -5.0447938     -12.503746      3.8192568      8.7400663      7.5690651      30.100713      1991.2865    
        48   0             -240.73179     -26855.686     -26574.754     -26615.054     -27377.251     -5.0689614     -12.443834      3.8212772      8.7392145      7.5683263      30.097688      1990.698     
        49   0             -240.74165     -26720.072     -26443.972     -26484.015     -27232.229     -5.0931032     -12.383726      3.8232883      8.7383624      7.5675873      30.094664      1990.1096    
        50   0             -240.75145     -26584.248     -26312.978     -26352.765     -27087         -5.1172191     -12.323424      3.8252902      8.73751        7.5668479      30.09164       1989.5211    
        51   0             -240.76121     -26448.212     -26181.772     -26221.302     -26941.563     -5.1413089     -12.262927      3.8272831      8.7366573      7.5661083      30.088615      1988.9326    
        52   0             -240.77092     -26311.965     -26050.352     -26089.626     -26795.919     -5.1653724     -12.202235      3.8292671      8.7358042      7.5653684      30.085591      1988.344     
        53   0             -240.78057     -26175.506     -25918.719     -25957.735     -26650.065     -5.1894095     -12.141348      3.8312424      8.7349508      7.5646283      30.082567      1987.7554    
        54   0             -240.79018     -26038.834     -25786.87      -25825.63      -26504.002     -5.2134202     -12.080266      3.8332091      8.7340971      7.5638878      30.079543      1987.1668    
        55   0             -240.79974     -25901.948     -25654.807     -25693.309     -26357.729     -5.2374042     -12.018989      3.8351673      8.733243       7.5631471      30.076518      1986.5781    
        56   0             -240.80925     -25764.848     -25522.527     -25560.772     -26211.245     -5.2613613     -11.957518      3.8371171      8.7323887      7.562406       30.073494      1985.9894    
        57   0             -240.81871     -25627.533     -25390.031     -25428.018     -26064.55      -5.2852915     -11.895852      3.8390586      8.7315339      7.5616647      30.07047       1985.4007    
        58   0             -240.82811     -25490.002     -25257.317     -25295.047     -25917.642     -5.3091946     -11.833992      3.8409919      8.7306788      7.560923       30.067445      1984.8119    
        59   0             -240.83747     -25352.254     -25124.385     -25161.857     -25770.521     -5.3330703     -11.771937      3.8429172      8.7298234      7.5601811      30.064421      1984.2231    
        60   0             -240.84678     -25214.289     -24991.234     -25028.448     -25623.187     -5.3569185     -11.709687      3.8448345      8.7289676      7.5594389      30.061397      1983.6342    
        61   0             -240.85604     -25076.106     -24857.863     -24894.819     -25475.638     -5.3807391     -11.647244      3.8467438      8.7281115      7.5586963      30.058373      1983.0453    
        62   0             -240.86525     -24937.704     -24724.271     -24760.969     -25327.874     -5.4045318     -11.584605      3.8486453      8.727255       7.5579534      30.055348      1982.4564    
        63   0             -240.87441     -24799.083     -24590.458     -24626.898     -25179.893     -5.4282965     -11.521773      3.850539       8.7263981      7.5572103      30.052324      1981.8674    
        64   0             -240.88352     -24660.241     -24456.423     -24492.604     -25031.697     -5.4520329     -11.458746      3.8524249      8.7255409      7.5564668      30.0493        1981.2783    
        65   0             -240.89257     -24521.178     -24322.165     -24358.087     -24883.282     -5.4757409     -11.395525      3.8543031      8.7246833      7.5557229      30.046275      1980.6892    
        66   0             -240.90158     -24381.893     -24187.683     -24223.347     -24734.65      -5.4994203     -11.33211       3.8561736      8.7238253      7.5549788      30.043251      1980.1001    
        67   0             -240.91054     -24242.385     -24052.976     -24088.381     -24585.799     -5.5230709     -11.268501      3.8580365      8.7229669      7.5542343      30.040227      1979.5108    
        68   0             -240.91945     -24101.914     -23918.045     -23953.191     -24434.505     -5.5466925     -11.204699      3.8598922      8.7221081      7.5534895      30.037203      1978.9216    
        69   0             -240.9283      -23961.002     -23782.879     -23817.766     -24282.362     -5.5702884     -11.140703      3.861744       8.7212489      7.5527443      30.034178      1978.3322    
        70   0             -240.93711     -23819.859     -23647.476     -23682.104     -24129.997     -5.5938589     -11.076512      3.8635926      8.7203892      7.5519987      30.031154      1977.7427    
        71   0             -240.94586     -23678.482     -23511.835     -23546.203     -23977.408     -5.617404      -11.012128      3.865438       8.719529       7.5512526      30.02813       1977.1531    
        72   0             -240.95457     -23536.871     -23375.954     -23410.063     -23824.595     -5.6409234     -10.947548      3.8672803      8.7186683      7.5505061      30.025105      1976.5634    
        73   0             -240.96323     -23395.024     -23239.832     -23273.682     -23671.557     -5.6644169     -10.882774      3.8691195      8.717807       7.5497592      30.022081      1975.9736    
        74   0             -240.97183     -23252.94      -23103.469     -23137.059     -23518.293     -5.6878843     -10.817806      3.8709555      8.7169453      7.5490118      30.019057      1975.3837    
        75   0             -240.98038     -23110.619     -22966.863     -23000.193     -23364.801     -5.7113254     -10.752643      3.8727883      8.716083       7.5482639      30.016033      1974.7936    
        76   0             -240.98889     -22968.059     -22830.014     -22863.083     -23211.082     -5.73474       -10.687286      3.8746179      8.7152202      7.5475156      30.013008      1974.2035    
        77   0             -240.99734     -22825.26      -22692.919     -22725.728     -23057.132     -5.7581277     -10.621734      3.8764443      8.7143568      7.5467668      30.009984      1973.6132    
        78   0             -241.00574     -22682.219     -22555.578     -22588.127     -22902.953     -5.7814885     -10.555987      3.8782673      8.7134929      7.5460176      30.00696       1973.0227    
        79   0             -241.01409     -22538.936     -22417.989     -22450.278     -22748.542     -5.804822      -10.490046      3.8800869      8.7126285      7.5452678      30.003935      1972.4322    
        80   0             -241.02239     -22395.41      -22280.152     -22312.18      -22593.898     -5.8281279     -10.42391       3.8819031      8.7117635      7.5445176      30.000911      1971.8415    
        81   0             -241.03064     -22251.639     -22142.065     -22173.833     -22439.021     -5.8514061     -10.357579      3.8837157      8.7108979      7.543767       29.997887      1971.2507    
        82   0             -241.03884     -22107.623     -22003.727     -22035.234     -22283.908     -5.8746562     -10.291054      3.8855246      8.7100318      7.5430158      29.994863      1970.6597    
        83   0             -241.04699     -21963.36      -21865.136     -21896.382     -22128.56      -5.897878      -10.224334      3.8873297      8.709165       7.5422641      29.991838      1970.0686    
        84   0             -241.05508     -21818.848     -21726.292     -21757.277     -21972.975     -5.9210711     -10.15742       3.8891309      8.7082977      7.5415119      29.988814      1969.4773    
        85   0             -241.06313     -21674.087     -21587.193     -21617.917     -21817.151     -5.9442353     -10.09031       3.8909279      8.7074298      7.5407592      29.98579       1968.8859    
        86   0             -241.07112     -21529.075     -21447.837     -21478.3       -21661.087     -5.9673702     -10.023006      3.8927206      8.7065613      7.540006       29.982765      1968.2943    
        87   0             -241.07906     -21383.811     -21308.224     -21338.425     -21504.782     -5.9904756     -9.9555072      3.8945088      8.7056922      7.5392522      29.979741      1967.7026    
        88   0             -241.08695     -21238.293     -21168.351     -21198.291     -21348.236     -6.0135511     -9.8878133      3.8962922      8.7048225      7.5384979      29.976717      1967.1107    
        89   0             -241.09479     -21092.52      -21028.218     -21057.896     -21191.446     -6.0365964     -9.8199245      3.8980708      8.7039522      7.5377431      29.973693      1966.5187    
        90   0             -241.10258     -20946.491     -20887.823     -20917.239     -21034.411     -6.0596111     -9.7518408      3.8998441      8.7030812      7.5369878      29.970668      1965.9265    
        91   0             -241.11031     -20800.204     -20747.165     -20776.319     -20877.13      -6.0825949     -9.6835622      3.901612       8.7022095      7.5362318      29.967644      1965.3341    
        92   0             -241.118       -20653.658     -20606.241     -20635.133     -20719.601     -6.1055474     -9.6150885      3.9033741      8.7013373      7.5354753      29.96462       1964.7415    
        93   0             -241.12563     -20506.852     -20465.051     -20493.681     -20561.824     -6.1284683     -9.5464198      3.9051301      8.7004643      7.5347183      29.961595      1964.1488    
        94   0             -241.13321     -20359.783     -20323.592     -20351.96      -20403.797     -6.151357      -9.477556       3.9068797      8.6995907      7.5339606      29.958571      1963.5559    
        95   0             -241.14074     -20212.45      -20181.864     -20209.969     -20245.517     -6.1742133     -9.4084971      3.9086225      8.6987164      7.5332024      29.955547      1962.9628    
        96   0             -241.14821     -20064.852     -20039.864     -20067.707     -20086.985     -6.1970367     -9.339243       3.9103582      8.6978414      7.5324436      29.952523      1962.3695    
        97   0             -241.15564     -19916.987     -19897.591     -19925.171     -19928.198     -6.2198268     -9.2697937      3.9120863      8.6969658      7.5316842      29.949498      1961.776     
        98   0             -241.16301     -19768.853     -19755.043     -19782.361     -19769.154     -6.2425832     -9.2001492      3.9138065      8.6960894      7.5309241      29.946474      1961.1823    
        99   0             -241.17032     -19620.51      -19612.278     -19639.333     -19609.919     -6.2652959     -9.1303382      3.9155174      8.6952126      7.5301638      29.943451      1960.5886    
       100   0             -241.17758     -19472.019     -19469.354     -19496.146     -19450.557     -6.2879552     -9.0603902      3.917218       8.6943358      7.5294034      29.94043       1959.9952    
Loop time of 0.156185 on 48 procs for 100 steps with 60 atoms

96.8% CPU use with 48 MPI tasks x no OpenMP threads

Minimization stats:
  Stopping criterion = max iterations
  Energy initial, next-to-last, final = 
     -240.201797528846  -241.170324938461  -241.177582927476
  Force two-norm initial, final = 72.361809 41.723362
  Force max component initial, final = 42.978284 24.08505
  Final line search alpha, max atom move = 4.1208507e-06 9.9250893e-05
  Iterations, force evaluations = 100 100

MPI task timing breakdown:
Section |  min time  |  avg time  |  max time  |%varavg| %total
---------------------------------------------------------------
Pair    | 1.2008e-05 | 0.0052709  | 0.01266    |   4.2 |  3.37
Neigh   | 0          | 0          | 0          |   0.0 |  0.00
Comm    | 0.0049051  | 0.010883   | 0.017431   |   3.3 |  6.97
Output  | 0.0038863  | 0.0066303  | 0.13255    |  22.6 |  4.25
Modify  | 0          | 0          | 0          |   0.0 |  0.00
Other   |            | 0.1334     |            |       | 85.41

Nlocal:           1.25 ave           3 max           0 min
Histogram: 7 0 0 23 0 0 17 0 0 1
Nghost:        175.333 ave         183 max         156 min
Histogram: 5 5 2 0 0 0 0 0 13 23
Neighs:              0 ave           0 max           0 min
Histogram: 48 0 0 0 0 0 0 0 0 0
FullNghs:           46 ave         108 max           0 min
Histogram: 7 0 3 20 0 0 8 9 0 1

Total # of neighbors = 2208
Ave neighs/atom = 36.8
Neighbor list builds = 0
Dangerous builds = 0

variable tmp equal pxx
variable pxx0 equal ${tmp}
variable pxx0 equal -19469.353585101
variable tmp equal pyy
variable pyy0 equal ${tmp}
variable pyy0 equal -19496.1455715068
variable tmp equal pzz
variable pzz0 equal ${tmp}
variable pzz0 equal -19450.5570955345
variable tmp equal pyz
variable pyz0 equal ${tmp}
variable pyz0 equal 3.91721801785419
variable tmp equal pxz
variable pxz0 equal ${tmp}
variable pxz0 equal -9.06039019975343
variable tmp equal pxy
variable pxy0 equal ${tmp}
variable pxy0 equal -6.28795517480395

variable tmp equal lx
variable lx0 equal ${tmp}
variable lx0 equal 8.69433584628159
variable tmp equal ly
variable ly0 equal ${tmp}
variable ly0 equal 7.52940340967919
variable tmp equal lz
variable lz0 equal ${tmp}
variable lz0 equal 29.9404304688083

# These formulas define the derivatives w.r.t. strain components
# Constants uses $, variables use v_
variable d1 equal -(v_pxx1-${pxx0})/(v_delta/v_len0)*${cfac}
variable d1 equal -(v_pxx1--19469.353585101)/(v_delta/v_len0)*${cfac}
variable d1 equal -(v_pxx1--19469.353585101)/(v_delta/v_len0)*0.0001
variable d2 equal -(v_pyy1-${pyy0})/(v_delta/v_len0)*${cfac}
variable d2 equal -(v_pyy1--19496.1455715068)/(v_delta/v_len0)*${cfac}
variable d2 equal -(v_pyy1--19496.1455715068)/(v_delta/v_len0)*0.0001
variable d3 equal -(v_pzz1-${pzz0})/(v_delta/v_len0)*${cfac}
variable d3 equal -(v_pzz1--19450.5570955345)/(v_delta/v_len0)*${cfac}
variable d3 equal -(v_pzz1--19450.5570955345)/(v_delta/v_len0)*0.0001
variable d4 equal -(v_pyz1-${pyz0})/(v_delta/v_len0)*${cfac}
variable d4 equal -(v_pyz1-3.91721801785419)/(v_delta/v_len0)*${cfac}
variable d4 equal -(v_pyz1-3.91721801785419)/(v_delta/v_len0)*0.0001
variable d5 equal -(v_pxz1-${pxz0})/(v_delta/v_len0)*${cfac}
variable d5 equal -(v_pxz1--9.06039019975343)/(v_delta/v_len0)*${cfac}
variable d5 equal -(v_pxz1--9.06039019975343)/(v_delta/v_len0)*0.0001
variable d6 equal -(v_pxy1-${pxy0})/(v_delta/v_len0)*${cfac}
variable d6 equal -(v_pxy1--6.28795517480395)/(v_delta/v_len0)*${cfac}
variable d6 equal -(v_pxy1--6.28795517480395)/(v_delta/v_len0)*0.0001

displace_atoms all random ${atomjiggle} ${atomjiggle} ${atomjiggle} 87287 units box
displace_atoms all random 1e-05 ${atomjiggle} ${atomjiggle} 87287 units box
displace_atoms all random 1e-05 1e-05 ${atomjiggle} 87287 units box
displace_atoms all random 1e-05 1e-05 1e-05 87287 units box
Displacing atoms ...

# write restart
unfix 3
write_restart restart.equil
System init for write_restart ...

# uxx Perturbation

variable dir equal 1
include displace.mod
# NOTE: This script should not need to be
# modified. See in.elastic for more info.
#
# Find which reference length to use

if "${dir} == 1" then    "variable len0 equal ${lx0}"
variable len0 equal ${lx0}
variable len0 equal 8.69433584628159
if "${dir} == 2" then    "variable len0 equal ${ly0}"
if "${dir} == 3" then    "variable len0 equal ${lz0}"
if "${dir} == 4" then    "variable len0 equal ${lz0}"
if "${dir} == 5" then    "variable len0 equal ${lz0}"
if "${dir} == 6" then    "variable len0 equal ${ly0}"

# Reset box and simulation parameters

clear
box tilt large
read_restart restart.equil
Reading restart file ...
  restart file = 24 Mar 2022, LAMMPS = 24 Mar 2022
  restoring atom style atomic from restart
  triclinic box = (0.042726577 0.037058295 0.15121177) to (8.7370624 7.5664617 30.091642) with tilt (-4.3471038 0 0)
  3 by 2 by 8 MPI processor grid
  pair style nep stores no restart info
  60 atoms
  read_restart CPU = 0.101 seconds
include potential.mod
# NOTE: This script can be modified for different pair styles
# See in.elastic for more info.

# Choose potential
#pair_style	sw
#pair_coeff * * Si.sw Si

# MTP potential
pair_style  nep
pair_coeff  * *  nep_y2026_m04_d08_h20_m24_s14_generation100000.txt  Bi Sb Te


# Setup neighbor style
neighbor 1.0 nsq
neigh_modify once no every 1 delay 0 check yes

# Setup minimization style
min_style	     cg
min_modify	     dmax ${dmax} line quadratic
min_modify	     dmax 0.01 line quadratic

# Setup output
thermo		1
thermo_style custom step temp pe press pxx pyy pzz pxy pxz pyz lx ly lz vol
thermo_modify norm no

# Negative deformation

variable delta equal -${up}*${len0}
variable delta equal -1e-06*${len0}
variable delta equal -1e-06*8.69433584628159
variable deltaxy equal -${up}*xy
variable deltaxy equal -1e-06*xy
variable deltaxz equal -${up}*xz
variable deltaxz equal -1e-06*xz
variable deltayz equal -${up}*yz
variable deltayz equal -1e-06*yz
if "${dir} == 1" then    "change_box all x delta 0 ${delta} xy delta ${deltaxy} xz delta ${deltaxz} remap units box"
change_box all x delta 0 ${delta} xy delta ${deltaxy} xz delta ${deltaxz} remap units box
change_box all x delta 0 -8.69433584628159e-06 xy delta ${deltaxy} xz delta ${deltaxz} remap units box
change_box all x delta 0 -8.69433584628159e-06 xy delta 4.34710375998664e-06 xz delta ${deltaxz} remap units box
change_box all x delta 0 -8.69433584628159e-06 xy delta 4.34710375998664e-06 xz delta -0 remap units box
Changing box ...
  triclinic box = (0.042726577 0.037058295 0.15121177) to (8.7370537 7.5664617 30.091642) with tilt (-4.3471038 0 0)
  triclinic box = (0.042726577 0.037058295 0.15121177) to (8.7370537 7.5664617 30.091642) with tilt (-4.3470994 0 0)
  triclinic box = (0.042726577 0.037058295 0.15121177) to (8.7370537 7.5664617 30.091642) with tilt (-4.3470994 0 0)
if "${dir} == 2" then    "change_box all y delta 0 ${delta} yz delta ${deltayz} remap units box"
if "${dir} == 3" then    "change_box all z delta 0 ${delta} remap units box"
if "${dir} == 4" then    "change_box all yz delta ${delta} remap units box"
if "${dir} == 5" then    "change_box all xz delta ${delta} remap units box"
if "${dir} == 6" then    "change_box all xy delta ${delta} remap units box"

# Relax atoms positions

minimize ${etol} ${ftol} ${maxiter} ${maxeval}
minimize 0 ${ftol} ${maxiter} ${maxeval}
minimize 0 1e-18 ${maxiter} ${maxeval}
minimize 0 1e-18 100 ${maxeval}
minimize 0 1e-18 100 1000
Neighbor list info ...
  update every 1 steps, delay 0 steps, check yes
  max neighbors/atom: 2000, page size: 100000
  master list distance cutoff = 7
  ghost atom cutoff = 7
  1 neighbor lists, perpetual/occasional/extra = 1 0 0
  (1) pair nep, perpetual
      attributes: full, newton on
      pair build: full/nsq
      stencil: none
      bin: none
Per MPI rank memory allocation (min/avg/max) = 4.085 | 4.085 | 4.085 Mbytes
   Step          Temp          PotEng         Press           Pxx            Pyy            Pzz            Pxy            Pxz            Pyz             Lx             Ly             Lz           Volume    
       100   0             -241.17761     -19471.521     -19468.514     -19495.928     -19450.122     -6.3210288     -8.9938624      3.7424303      8.6943272      7.5294034      29.94043       1959.9933    
       101   0             -241.28214     -19387.484     -19468.146     -19488.264     -19206.043     -4.1526154     -10.881317     -2.3578481      8.6943272      7.5294034      29.94043       1959.9933    
       102   0             -241.37315     -19219.156     -19398.047     -19412.14      -18847.28      -3.1253556     -12.191807     -5.8099829      8.6943272      7.5294034      29.94043       1959.9933    
       103   0             -241.45125     -18969.713     -19264.911     -19274.094     -18370.134     -2.9740797     -13.011695     -7.0079936      8.6943272      7.5294034      29.94043       1959.9933    
       104   0             -241.51873     -18645.798     -19076.632     -19081.796     -17778.967     -3.4012025     -13.463387     -6.4470332      8.6943272      7.5294034      29.94043       1959.9933    
       105   0             -241.57752     -18260.911     -18840.636     -18842.502     -17099.594     -4.1403474     -13.656028     -4.5814095      8.6943272      7.5294034      29.94043       1959.9933    
       106   0             -241.6291      -17823.848     -18563.334     -18562.505     -16345.704     -4.9662692     -13.687044     -1.832058       8.6943272      7.5294034      29.94043       1959.9933    
       107   0             -241.67463     -17342.457     -18250.54      -18247.544     -15529.286     -5.7004348     -13.639327      1.4189079      8.6943272      7.5294034      29.94043       1959.9933    
       108   0             -241.71501     -16824.014     -17907.479     -17902.807     -14661.757     -6.2151818     -13.577845      4.8361319      8.6943272      7.5294034      29.94043       1959.9933    
       109   0             -241.75091     -16274.762     -17538.703     -17532.832     -13752.75      -6.4336388     -13.546245      8.14131        8.6943272      7.5294034      29.94043       1959.9933    
       110   0             -241.78281     -15700.009     -17148.046     -17141.454     -12810.526     -6.3257389     -13.564164      11.12011       8.6943272      7.5294034      29.94043       1959.9933    
       111   0             -241.81107     -15104.027     -16738.575     -16731.746     -11841.759     -5.901032      -13.626094      13.623887      8.6943272      7.5294034      29.94043       1959.9933    
       112   0             -241.83591     -14490.039     -16312.593     -16306.025     -10851.499     -5.1996684     -13.701913      15.565109      8.6943272      7.5294034      29.94043       1959.9933    
       113   0             -241.8575      -13860.291     -15871.7       -15865.901     -9843.2707     -4.2831542     -13.738192      16.907566      8.6943272      7.5294034      29.94043       1959.9933    
       114   0             -241.87588     -13216.209     -15416.904     -15412.399     -8819.3245     -3.2264999     -13.658259      17.653521      8.6943272      7.5294034      29.94043       1959.9933    
       115   0             -241.89109     -12558.673     -14948.815     -14946.157     -7781.0478     -2.1136044     -13.357302      17.829909      8.6943272      7.5294034      29.94043       1959.9933    
       116   0             -241.90306     -11888.522     -14468.022     -14467.803     -6729.7412     -1.0389443     -12.685046      17.474704      8.6943272      7.5294034      29.94043       1959.9933    
       117   0             -241.91174     -11207.824     -13976.037     -13978.911     -5668.5236     -0.12355906    -11.397014      16.621519      8.6943272      7.5294034      29.94043       1959.9933    
       118   0             -241.91701     -10524.283     -13478.587     -13485.306     -4608.9572      0.42509393    -9.0081305      15.2676        8.6943272      7.5294034      29.94043       1959.9933    
       119   0             -241.91898     -9876.7461     -13004.607     -13016.127     -3609.5049      0.029846718   -4.1680702      13.196418      8.6943272      7.5294034      29.94043       1959.9933    
       120   0             -241.91957     -9921.8552     -13038.038     -13051.424     -3676.1042     -1.8176406      0.61208375     11.202342      8.6943272      7.5294034      29.94043       1959.9933    
       121   0             -241.91995     -9908.4437     -13026.313     -13042.171     -3656.8472     -1.261347      -0.78879109     8.498295       8.6943272      7.5294034      29.94043       1959.9933    
       122   0             -241.92012     -9882.5905     -13002.651     -13018.625     -3626.4959     -3.0781646      4.8191353      6.9494312      8.6943272      7.5294034      29.94043       1959.9933    
       123   0             -241.92061     -9991.0012     -13087.708     -13104.815     -3780.4812     -4.4539546      10.836697      5.1072573      8.6943272      7.5294034      29.94043       1959.9933    
       124   0             -241.92088     -9953.9886     -13056.438     -13077.095     -3728.4329     -1.826307       3.2491957      4.0142041      8.6943272      7.5294034      29.94043       1959.9933    
       125   0             -241.92101     -9929.6845     -13034.191     -13061.434     -3693.4281     -1.2266124     -0.47652269    -1.2040183      8.6943272      7.5294034      29.94043       1959.9933    
       126   0             -241.9211      -9897.2163     -13006.874     -13033.797     -3650.9776     -3.0860715      4.1943105     -3.3439535      8.6943272      7.5294034      29.94043       1959.9933    
       127   0             -241.92114     -9889.2594     -13000.953     -13024.535     -3642.2909     -3.1879906      5.403817      -0.28310003     8.6943272      7.5294034      29.94043       1959.9933    
       128   0             -241.92119     -9927.6883     -13031.797     -13054.876     -3696.3926     -2.236318       3.2872027      1.9624559      8.6943272      7.5294034      29.94043       1959.9933    
       129   0             -241.92122     -9936.9821     -13035.573     -13061.672     -3713.7011     -1.9322507      2.2017939     -0.70039875     8.6943272      7.5294034      29.94043       1959.9933    
       130   0             -241.92124     -9946.773      -13042.312     -13069.036     -3728.9709     -2.0914234      2.6084903     -1.5682437      8.6943272      7.5294034      29.94043       1959.9933    
       131   0             -241.92125     -9928.8838     -13029.041     -13054.419     -3703.1917     -2.2614337      2.9935436      0.15769962     8.6943272      7.5294034      29.94043       1959.9933    
       132   0             -241.92126     -9921.639      -13023.342     -13049.124     -3692.4514     -2.3484813      2.9306502     -0.17320618     8.6943272      7.5294034      29.94043       1959.9933    
       133   0             -241.92126     -9919.9264     -13021.066     -13047.776     -3690.9377     -2.5182652      3.162527      -1.3303079      8.6943272      7.5294034      29.94043       1959.9933    
       134   0             -241.92126     -9922.3728     -13022.777     -13049.098     -3695.2432     -2.7733102      3.7288274     -0.82277175     8.6943272      7.5294034      29.94043       1959.9933    
       135   0             -241.92127     -9934.271      -13032.419     -13058.357     -3712.037      -2.6972063      3.6278629     -0.13622662     8.6943272      7.5294034      29.94043       1959.9933    
       136   0             -241.92127     -9933.1888     -13030.995     -13057.595     -3710.9763     -2.129671       2.5618274     -1.0943339      8.6943272      7.5294034      29.94043       1959.9933    
       137   0             -241.92127     -9931.8714     -13029.494     -13056.678     -3709.4419     -2.1002499      2.6046119     -1.774967       8.6943272      7.5294034      29.94043       1959.9933    
       138   0             -241.92127     -9926.7756     -13025.682     -13052.671     -3701.9738     -2.6697319      3.7357785     -1.4569791      8.6943272      7.5294034      29.94043       1959.9933    
       139   0             -241.92127     -9925.4687     -13024.746     -13051.682     -3699.9783     -2.6922705      3.7067846     -1.3885423      8.6943272      7.5294034      29.94043       1959.9933    
       140   0             -241.92127     -9926.0354     -13025.037     -13052.186     -3700.8839     -2.4415327      3.1687057     -1.6447735      8.6943272      7.5294034      29.94043       1959.9933    
       141   0             -241.92127     -9926.672      -13025.416     -13052.621     -3701.9798     -2.42993        3.18075       -1.715105       8.6943272      7.5294034      29.94043       1959.9933    
       142   0             -241.92127     -9928.2342     -13026.75      -13053.774     -3704.179      -2.5790103      3.5426747     -1.5373476      8.6943272      7.5294034      29.94043       1959.9933    
       143   0             -241.92127     -9927.5344     -13026.163     -13053.185     -3703.2561     -2.5751899      3.5447326     -1.5390177      8.6943272      7.5294034      29.94043       1959.9933    
       144   0             -241.92127     -9927.1723     -13025.779     -13053.004     -3702.7346     -2.4969023      3.3381979     -1.7319726      8.6943272      7.5294034      29.94043       1959.9933    
       145   0             -241.92127     -9926.3342     -13025.107     -13052.353     -3701.5421     -2.5082202      3.3484685     -1.7593678      8.6943272      7.5294034      29.94043       1959.9933    
       146   0             -241.92127     -9926.2405     -13025.069     -13052.226     -3701.4266     -2.5343034      3.426764      -1.6807667      8.6943272      7.5294034      29.94043       1959.9933    
       147   0             -241.92127     -9926.5946     -13025.346     -13052.49      -3701.9472     -2.5371223      3.4514345     -1.658013       8.6943272      7.5294034      29.94043       1959.9933    
       148   0             -241.92127     -9926.7271     -13025.407     -13052.62      -3702.1543     -2.5294642      3.4135875     -1.7295155      8.6943272      7.5294034      29.94043       1959.9933    
       149   0             -241.92127     -9926.9407     -13025.55      -13052.785     -3702.4866     -2.5311104      3.4058225     -1.7524471      8.6943272      7.5294034      29.94043       1959.9933    
       150   0             -241.92127     -9926.7519     -13025.413     -13052.594     -3702.248      -2.5478517      3.451224      -1.6915175      8.6943272      7.5294034      29.94043       1959.9933    
       151   0             -241.92127     -9926.7645     -13025.427     -13052.606     -3702.2605     -2.5513595      3.4592723     -1.6876338      8.6943272      7.5294034      29.94043       1959.9933    
       152   0             -241.92127     -9926.7462     -13025.391     -13052.614     -3702.2334     -2.538625       3.4281668     -1.738357       8.6943272      7.5294034      29.94043       1959.9933    
       153   0             -241.92127     -9926.7251     -13025.365     -13052.598     -3702.2127     -2.53646        3.4248444     -1.7485425      8.6943272      7.5294034      29.94043       1959.9933    
       154   0             -241.92127     -9926.7798     -13025.42      -13052.63      -3702.2887     -2.5451523      3.4451997     -1.7207409      8.6943272      7.5294034      29.94043       1959.9933    
       155   0             -241.92127     -9926.7357     -13025.388     -13052.591     -3702.2277     -2.544609       3.4436329     -1.7147705      8.6943272      7.5294034      29.94043       1959.9933    
       156   0             -241.92127     -9926.7776     -13025.415     -13052.629     -3702.2891     -2.5405588      3.4363861     -1.7296757      8.6943272      7.5294034      29.94043       1959.9933    
       157   0             -241.92127     -9926.7348     -13025.371     -13052.596     -3702.2376     -2.5461146      3.4489409     -1.7401338      8.6943272      7.5294034      29.94043       1959.9933    
       158   0             -241.92127     -9926.7513     -13025.386     -13052.607     -3702.2611     -2.5494037      3.4538986     -1.7348603      8.6943272      7.5294034      29.94043       1959.9933    
       159   0             -241.92127     -9926.747      -13025.386     -13052.6       -3702.2549     -2.5461271      3.4462703     -1.7270414      8.6943272      7.5294034      29.94043       1959.9933    
       160   0             -241.92127     -9926.7425     -13025.381     -13052.598     -3702.2484     -2.5455288      3.4465034     -1.7317623      8.6943272      7.5294034      29.94043       1959.9933    
       161   0             -241.92127     -9926.7483     -13025.384     -13052.604     -3702.2565     -2.5470547      3.4505354     -1.736026       8.6943272      7.5294034      29.94043       1959.9933    
       162   0             -241.92127     -9926.7361     -13025.375     -13052.593     -3702.2404     -2.5466417      3.4486274     -1.7316594      8.6943272      7.5294034      29.94043       1959.9933    
       163   0             -241.92127     -9926.7416     -13025.38      -13052.596     -3702.2482     -2.5458963      3.4462162     -1.7299709      8.6943272      7.5294034      29.94043       1959.9933    
       164   0             -241.92127     -9926.7383     -13025.375     -13052.596     -3702.2436     -2.5468742      3.4486976     -1.7350961      8.6943272      7.5294034      29.94043       1959.9933    
       165   0             -241.92127     -9926.7424     -13025.378     -13052.599     -3702.2499     -2.5476499      3.4506764     -1.7362847      8.6943272      7.5294034      29.94043       1959.9933    
       166   0             -241.92127     -9926.7458     -13025.382     -13052.6       -3702.255      -2.5473382      3.4499795     -1.7328731      8.6943272      7.5294034      29.94043       1959.9933    
       167   0             -241.92127     -9926.7433     -13025.38      -13052.598     -3702.2516     -2.5468325      3.448692      -1.7325459      8.6943272      7.5294034      29.94043       1959.9933    
       168   0             -241.92127     -9926.7442     -13025.38      -13052.6       -3702.2526     -2.5468827      3.4487783     -1.7344681      8.6943272      7.5294034      29.94043       1959.9933    
       169   0             -241.92127     -9926.7385     -13025.375     -13052.595     -3702.2448     -2.5473957      3.4500267     -1.7355302      8.6943272      7.5294034      29.94043       1959.9933    
       170   0             -241.92127     -9926.7401     -13025.377     -13052.596     -3702.247      -2.5474493      3.4501261     -1.7345414      8.6943272      7.5294034      29.94043       1959.9933    
       171   0             -241.92127     -9926.7407     -13025.378     -13052.596     -3702.2481     -2.5471783      3.4494941     -1.7335831      8.6943272      7.5294034      29.94043       1959.9933    
       172   0             -241.92127     -9926.7424     -13025.379     -13052.598     -3702.2508     -2.5472157      3.4495973     -1.7339506      8.6943272      7.5294034      29.94043       1959.9933    
       173   0             -241.92127     -9926.7434     -13025.379     -13052.599     -3702.2522     -2.5474389      3.4501079     -1.7345552      8.6943272      7.5294034      29.94043       1959.9933    
       174   0             -241.92127     -9926.7425     -13025.379     -13052.598     -3702.251      -2.5474322      3.4500813     -1.7342944      8.6943272      7.5294034      29.94043       1959.9933    
       175   0             -241.92127     -9926.742      -13025.378     -13052.597     -3702.2502     -2.5473497      3.4498962     -1.7339224      8.6943272      7.5294034      29.94043       1959.9933    
       176   0             -241.92127     -9926.741      -13025.377     -13052.597     -3702.2488     -2.5474013      3.4500043     -1.7342236      8.6943272      7.5294034      29.94043       1959.9933    
       177   0             -241.92127     -9926.7415     -13025.378     -13052.597     -3702.2495     -2.5474395      3.4500793     -1.7344434      8.6943272      7.5294034      29.94043       1959.9933    
       178   0             -241.92127     -9926.7419     -13025.378     -13052.597     -3702.2501     -2.5473929      3.4499815     -1.7342572      8.6943272      7.5294034      29.94043       1959.9933    
       179   0             -241.92127     -9926.7424     -13025.379     -13052.598     -3702.2508     -2.5473779      3.4499607     -1.734151       8.6943272      7.5294034      29.94043       1959.9933    
       180   0             -241.92127     -9926.7424     -13025.379     -13052.598     -3702.2509     -2.5474135      3.4500458     -1.7342683      8.6943272      7.5294034      29.94043       1959.9933    
       181   0             -241.92127     -9926.7419     -13025.378     -13052.597     -3702.2502     -2.5474358      3.4500802     -1.7343638      8.6943272      7.5294034      29.94043       1959.9933    
       182   0             -241.92127     -9926.7418     -13025.378     -13052.597     -3702.25       -2.5474344      3.4500639     -1.7343299      8.6943272      7.5294034      29.94043       1959.9933    
       183   0             -241.92127     -9926.7417     -13025.378     -13052.597     -3702.2499     -2.5474249      3.4500497     -1.7342667      8.6943272      7.5294034      29.94043       1959.9933    
       184   0             -241.92127     -9926.7418     -13025.378     -13052.597     -3702.2501     -2.5474239      3.4500548     -1.734271       8.6943272      7.5294034      29.94043       1959.9933    
       185   0             -241.92127     -9926.7419     -13025.378     -13052.597     -3702.2502     -2.5474285      3.4500663     -1.7343155      8.6943272      7.5294034      29.94043       1959.9933    
       186   0             -241.92127     -9926.742      -13025.378     -13052.597     -3702.2503     -2.5474262      3.4500582     -1.7343052      8.6943272      7.5294034      29.94043       1959.9933    
       187   0             -241.92127     -9926.7419     -13025.378     -13052.597     -3702.2502     -2.5474222      3.4500472     -1.7342777      8.6943272      7.5294034      29.94043       1959.9933    
       188   0             -241.92127     -9926.7418     -13025.378     -13052.597     -3702.2501     -2.5474294      3.4500638     -1.7342954      8.6943272      7.5294034      29.94043       1959.9933    
       189   0             -241.92127     -9926.7418     -13025.378     -13052.597     -3702.2501     -2.5474346      3.450075      -1.7343105      8.6943272      7.5294034      29.94043       1959.9933    
       190   0             -241.92127     -9926.7418     -13025.378     -13052.597     -3702.2501     -2.5474321      3.450069      -1.7343039      8.6943272      7.5294034      29.94043       1959.9933    
       191   0             -241.92127     -9926.7419     -13025.378     -13052.597     -3702.2502     -2.5474301      3.450065      -1.7343003      8.6943272      7.5294034      29.94043       1959.9933    
       192   0             -241.92127     -9926.7419     -13025.378     -13052.597     -3702.2502     -2.5474316      3.4500685     -1.7343052      8.6943272      7.5294034      29.94043       1959.9933    
       193   0             -241.92127     -9926.7419     -13025.378     -13052.597     -3702.2502     -2.547432       3.4500699     -1.7343057      8.6943272      7.5294034      29.94043       1959.9933    
       194   0             -241.92127     -9926.7419     -13025.378     -13052.597     -3702.2502     -2.5474315      3.4500691     -1.7343029      8.6943272      7.5294034      29.94043       1959.9933    
       195   0             -241.92127     -9926.7419     -13025.378     -13052.597     -3702.2502     -2.5474317      3.4500688     -1.734303       8.6943272      7.5294034      29.94043       1959.9933    
       196   0             -241.92127     -9926.7419     -13025.378     -13052.597     -3702.2502     -2.5474321      3.4500692     -1.7343052      8.6943272      7.5294034      29.94043       1959.9933    
       197   0             -241.92127     -9926.7419     -13025.378     -13052.597     -3702.2502     -2.5474322      3.4500699     -1.7343065      8.6943272      7.5294034      29.94043       1959.9933    
       198   0             -241.92127     -9926.7419     -13025.378     -13052.597     -3702.2502     -2.5474322      3.4500703     -1.7343047      8.6943272      7.5294034      29.94043       1959.9933    
       199   0             -241.92127     -9926.7419     -13025.378     -13052.597     -3702.2502     -2.5474322      3.4500701     -1.7343031      8.6943272      7.5294034      29.94043       1959.9933    
       200   0             -241.92127     -9926.7419     -13025.378     -13052.597     -3702.2502     -2.5474321      3.4500697     -1.7343044      8.6943272      7.5294034      29.94043       1959.9933    
Loop time of 0.0378268 on 48 procs for 100 steps with 60 atoms

99.2% CPU use with 48 MPI tasks x no OpenMP threads

Minimization stats:
  Stopping criterion = max iterations
  Energy initial, next-to-last, final = 
     -241.177614231723  -241.921269759786  -241.921269759786
  Force two-norm initial, final = 2.1438282 3.6370647e-09
  Force max component initial, final = 0.41425275 7.6309792e-10
  Final line search alpha, max atom move = 1 7.6309792e-10
  Iterations, force evaluations = 100 178

MPI task timing breakdown:
Section |  min time  |  avg time  |  max time  |%varavg| %total
---------------------------------------------------------------
Pair    | 1.8121e-05 | 0.0091632  | 0.022142   |   6.1 | 24.22
Neigh   | 0          | 0          | 0          |   0.0 |  0.00
Comm    | 0.0059655  | 0.018941   | 0.028754   |   4.1 | 50.07
Output  | 0.0038361  | 0.003908   | 0.0044066  |   0.1 | 10.33
Modify  | 0          | 0          | 0          |   0.0 |  0.00
Other   |            | 0.005815   |            |       | 15.37

Nlocal:           1.25 ave           3 max           0 min
Histogram: 8 0 0 23 0 0 14 0 0 3
Nghost:         180.75 ave         183 max         177 min
Histogram: 2 7 0 5 0 3 7 0 18 6
Neighs:              0 ave           0 max           0 min
Histogram: 48 0 0 0 0 0 0 0 0 0
FullNghs:           52 ave         126 max           0 min
Histogram: 8 0 0 23 0 0 14 0 0 3

Total # of neighbors = 2496
Ave neighs/atom = 41.6
Neighbor list builds = 0
Dangerous builds = 0

# Obtain new stress tensor

variable tmp equal pxx
variable pxx1 equal ${tmp}
variable pxx1 equal -13025.3780725711
variable tmp equal pyy
variable pyy1 equal ${tmp}
variable pyy1 equal -13052.5973557628
variable tmp equal pzz
variable pzz1 equal ${tmp}
variable pzz1 equal -3702.25017571071
variable tmp equal pxy
variable pxy1 equal ${tmp}
variable pxy1 equal -2.54743210143481
variable tmp equal pxz
variable pxz1 equal ${tmp}
variable pxz1 equal 3.45006970047795
variable tmp equal pyz
variable pyz1 equal ${tmp}
variable pyz1 equal -1.73430443955606

# Compute elastic constant from pressure tensor

variable C1neg equal ${d1}
variable C1neg equal 644397.55125299
variable C2neg equal ${d2}
variable C2neg equal 644354.8215744
variable C3neg equal ${d3}
variable C3neg equal 1574830.69198238
variable C4neg equal ${d4}
variable C4neg equal -565.152245741025
variable C5neg equal ${d5}
variable C5neg equal 1251.04599002314
variable C6neg equal ${d6}
variable C6neg equal 374.052307336914

# Reset box and simulation parameters

clear
box tilt large
read_restart restart.equil
Reading restart file ...
  restart file = 24 Mar 2022, LAMMPS = 24 Mar 2022
  restoring atom style atomic from restart
  triclinic box = (0.042726577 0.037058295 0.15121177) to (8.7370624 7.5664617 30.091642) with tilt (-4.3471038 0 0)
  3 by 2 by 8 MPI processor grid
  pair style nep stores no restart info
  60 atoms
  read_restart CPU = 0.101 seconds
include potential.mod
# NOTE: This script can be modified for different pair styles
# See in.elastic for more info.

# Choose potential
#pair_style	sw
#pair_coeff * * Si.sw Si

# MTP potential
pair_style  nep
pair_coeff  * *  nep_y2026_m04_d08_h20_m24_s14_generation100000.txt  Bi Sb Te


# Setup neighbor style
neighbor 1.0 nsq
neigh_modify once no every 1 delay 0 check yes

# Setup minimization style
min_style	     cg
min_modify	     dmax ${dmax} line quadratic
min_modify	     dmax 0.01 line quadratic

# Setup output
thermo		1
thermo_style custom step temp pe press pxx pyy pzz pxy pxz pyz lx ly lz vol
thermo_modify norm no

# Positive deformation

variable delta equal ${up}*${len0}
variable delta equal 1e-06*${len0}
variable delta equal 1e-06*8.69433584628159
variable deltaxy equal ${up}*xy
variable deltaxy equal 1e-06*xy
variable deltaxz equal ${up}*xz
variable deltaxz equal 1e-06*xz
variable deltayz equal ${up}*yz
variable deltayz equal 1e-06*yz
if "${dir} == 1" then    "change_box all x delta 0 ${delta} xy delta ${deltaxy} xz delta ${deltaxz} remap units box"
change_box all x delta 0 ${delta} xy delta ${deltaxy} xz delta ${deltaxz} remap units box
change_box all x delta 0 8.69433584628159e-06 xy delta ${deltaxy} xz delta ${deltaxz} remap units box
change_box all x delta 0 8.69433584628159e-06 xy delta -4.34710375998664e-06 xz delta ${deltaxz} remap units box
change_box all x delta 0 8.69433584628159e-06 xy delta -4.34710375998664e-06 xz delta 0 remap units box
Changing box ...
  triclinic box = (0.042726577 0.037058295 0.15121177) to (8.7370711 7.5664617 30.091642) with tilt (-4.3471038 0 0)
  triclinic box = (0.042726577 0.037058295 0.15121177) to (8.7370711 7.5664617 30.091642) with tilt (-4.3471081 0 0)
  triclinic box = (0.042726577 0.037058295 0.15121177) to (8.7370711 7.5664617 30.091642) with tilt (-4.3471081 0 0)
if "${dir} == 2" then    "change_box all y delta 0 ${delta} yz delta ${deltayz} remap units box"
if "${dir} == 3" then    "change_box all z delta 0 ${delta} remap units box"
if "${dir} == 4" then    "change_box all yz delta ${delta} remap units box"
if "${dir} == 5" then    "change_box all xz delta ${delta} remap units box"
if "${dir} == 6" then    "change_box all xy delta ${delta} remap units box"

# Relax atoms positions

minimize ${etol} ${ftol} ${maxiter} ${maxeval}
minimize 0 ${ftol} ${maxiter} ${maxeval}
minimize 0 1e-18 ${maxiter} ${maxeval}
minimize 0 1e-18 100 ${maxeval}
minimize 0 1e-18 100 1000
Neighbor list info ...
  update every 1 steps, delay 0 steps, check yes
  max neighbors/atom: 2000, page size: 100000
  master list distance cutoff = 7
  ghost atom cutoff = 7
  1 neighbor lists, perpetual/occasional/extra = 1 0 0
  (1) pair nep, perpetual
      attributes: full, newton on
      pair build: full/nsq
      stencil: none
      bin: none
Per MPI rank memory allocation (min/avg/max) = 4.085 | 4.085 | 4.085 Mbytes
   Step          Temp          PotEng         Press           Pxx            Pyy            Pzz            Pxy            Pxz            Pyz             Lx             Ly             Lz           Volume    
       100   0             -241.17757     -19472.466     -19470.195     -19496.296     -19450.909     -6.3210219     -8.9941422      4.2581961      8.6943445      7.5294034      29.94043       1959.9972    
       101   0             -241.28209     -19388.405     -19469.803     -19488.616     -19206.796     -4.1526593     -10.881548     -1.8562477      8.6943445      7.5294034      29.94043       1959.9972    
       102   0             -241.3731      -19220.057     -19399.686     -19412.481     -18848.005     -3.1254013     -12.192016     -5.3220934      8.6943445      7.5294034      29.94043       1959.9972    
       103   0             -241.4512      -18970.603     -19266.535     -19274.43      -18370.842     -2.9741011     -13.011899     -6.5332297      8.6943445      7.5294034      29.94043       1959.9972    
       104   0             -241.51868     -18646.68      -19078.247     -19082.13      -17779.662     -3.4011958     -13.463591     -5.9849029      8.6943445      7.5294034      29.94043       1959.9972    
       105   0             -241.57747     -18261.787     -18842.244     -18842.836     -17100.28      -4.1403239     -13.656225     -4.131502       8.6943445      7.5294034      29.94043       1959.9972    
       106   0             -241.62905     -17824.72      -18564.937     -18562.84      -16346.384     -4.9662504     -13.687223     -1.3940223      8.6943445      7.5294034      29.94043       1959.9972    
       107   0             -241.67459     -17343.328     -18252.139     -18247.883     -15529.961     -5.7004461     -13.639472      1.84537        8.6943445      7.5294034      29.94043       1959.9972    
       108   0             -241.71497     -16824.884     -17909.075     -17903.15      -14662.428     -6.2152486     -13.577939      5.2512562      8.6943445      7.5294034      29.94043       1959.9972    
       109   0             -241.75086     -16275.631     -17540.296     -17533.181     -13753.418     -6.4337831     -13.546271      8.5452498      8.6943445      7.5294034      29.94043       1959.9972    
       110   0             -241.78277     -15700.878     -17149.636     -17141.807     -12811.189     -6.3259768     -13.564108      11.512903      8.6943445      7.5294034      29.94043       1959.9972    
       111   0             -241.81103     -15104.895     -16740.161     -16732.105     -11842.419     -5.901373      -13.625947      14.005413      8.6943445      7.5294034      29.94043       1959.9972    
       112   0             -241.83587     -14490.906     -16314.175     -16306.389     -10852.153     -5.2001158     -13.70167       15.935036      8.6943445      7.5294034      29.94043       1959.9972    
       113   0             -241.85746     -13861.156     -15873.278     -15866.271     -9843.9198     -4.2837059     -13.737854      17.265284      8.6943445      7.5294034      29.94043       1959.9972    
       114   0             -241.87585     -13217.073     -15418.476     -15412.775     -8819.9678     -3.2271503     -13.65783       17.998048      8.6943445      7.5294034      29.94043       1959.9972    
       115   0             -241.89105     -12559.535     -14950.38      -14946.54      -7781.6849     -2.1143452     -13.356795      18.159756      8.6943445      7.5294034      29.94043       1959.9972    
       116   0             -241.90303     -11889.381     -14469.578     -14468.194     -6730.3712     -1.0397648     -12.684484      17.78765       8.6943445      7.5294034      29.94043       1959.9972    
       117   0             -241.9117      -11208.679     -13977.581     -13979.31      -5669.1444     -0.12444114    -11.39645       16.914199      8.6943445      7.5294034      29.94043       1959.9972    
       118   0             -241.91698     -10525.129     -13480.114     -13485.712     -4609.5616      0.42419969    -9.0077054      15.534591      8.6943445      7.5294034      29.94043       1959.9972    
       119   0             -241.91894     -9877.5556     -13006.089     -13016.526     -3610.0522      0.02918013    -4.1683518      13.427454      8.6943445      7.5294034      29.94043       1959.9972    
       120   0             -241.91954     -9922.6345     -13039.488     -13051.811     -3676.6045     -1.8183548      0.61203706     11.415084      8.6943445      7.5294034      29.94043       1959.9972    
       121   0             -241.91991     -9908.9576     -13027.575     -13042.357     -3656.9417     -1.2619667     -0.78783613     8.7234607      8.6943445      7.5294034      29.94043       1959.9972    
       122   0             -241.92009     -9883.3274     -13004.077     -13018.986     -3626.9198     -3.0811234      4.8263717      7.1622886      8.6943445      7.5294034      29.94043       1959.9972    
       123   0             -241.92058     -9992.1409     -13089.425     -13105.484     -3781.5143     -4.4589017      10.84824       5.3030131      8.6943445      7.5294034      29.94043       1959.9972    
       124   0             -241.92085     -9954.9379     -13058.004     -13077.605     -3729.2056     -1.8291806      3.2536204      4.220669       8.6943445      7.5294034      29.94043       1959.9972    
       125   0             -241.92098     -9930.4838     -13035.658     -13061.833     -3693.9596     -1.2267381     -0.47650882    -0.98559992     8.6943445      7.5294034      29.94043       1959.9972    
       126   0             -241.92107     -9897.791      -13008.176     -13034.032     -3651.1648     -3.0862466      4.1974891     -3.1282023      8.6943445      7.5294034      29.94043       1959.9972    
       127   0             -241.92111     -9889.8142     -13002.242     -13024.764     -3642.4366     -3.1898785      5.4097825     -0.073629194    8.6943445      7.5294034      29.94043       1959.9972    
       128   0             -241.92116     -9928.2207     -13033.066     -13055.082     -3696.5144     -2.2391846      3.2930735      2.175285       8.6943445      7.5294034      29.94043       1959.9972    
       129   0             -241.92119     -9937.5834     -13036.895     -13061.921     -3713.9341     -1.9335498      2.2034679     -0.47834349     8.6943445      7.5294034      29.94043       1959.9972    
       130   0             -241.92121     -9947.4437     -13043.685     -13069.34      -3729.3065     -2.0925144      2.6099178     -1.3489528      8.6943445      7.5294034      29.94043       1959.9972    
       131   0             -241.92122     -9929.5662     -13030.419     -13054.734     -3703.5458     -2.2630534      2.9967224      0.36988864     8.6943445      7.5294034      29.94043       1959.9972    
       132   0             -241.92122     -9922.3263     -13024.726     -13049.443     -3692.8101     -2.3496857      2.9327         0.041377701    8.6943445      7.5294034      29.94043       1959.9972    
       133   0             -241.92123     -9920.57       -13022.419     -13048.06      -3691.2316     -2.5188133      3.1628036     -1.1100993      8.6943445      7.5294034      29.94043       1959.9972    
       134   0             -241.92123     -9923.004      -13024.121     -13049.375     -3695.5163     -2.7744687      3.7307968     -0.60523517     8.6943445      7.5294034      29.94043       1959.9972    
       135   0             -241.92123     -9934.8818     -13033.746     -13058.62      -3712.2795     -2.6991442      3.6320276      0.076932766    8.6943445      7.5294034      29.94043       1959.9972    
       136   0             -241.92124     -9933.8097     -13032.33      -13057.864     -3711.2349     -2.1309978      2.5641711     -0.87790679     8.6943445      7.5294034      29.94043       1959.9972    
       137   0             -241.92124     -9932.5097     -13030.844     -13056.959     -3709.7264     -2.1016037      2.6065977     -1.5559711      8.6943445      7.5294034      29.94043       1959.9972    
       138   0             -241.92124     -9927.4251     -13027.038     -13052.961     -3702.2761     -2.6712086      3.7383478     -1.2415346      8.6943445      7.5294034      29.94043       1959.9972    
       139   0             -241.92124     -9926.1198     -13026.102     -13051.974     -3700.2829     -2.6937893      3.7095714     -1.1743331      8.6943445      7.5294034      29.94043       1959.9972    
       140   0             -241.92124     -9926.6796     -13026.389     -13052.472     -3701.1775     -2.4429272      3.1710505     -1.4293688      8.6943445      7.5294034      29.94043       1959.9972    
       141   0             -241.92124     -9927.3072     -13026.761     -13052.9       -3702.2597     -2.4311017      3.1825887     -1.4993946      8.6943445      7.5294034      29.94043       1959.9972    
       142   0             -241.92124     -9928.8649     -13028.092     -13054.05      -3704.4522     -2.5804289      3.5452251     -1.3224354      8.6943445      7.5294034      29.94043       1959.9972    
       143   0             -241.92124     -9928.1657     -13027.505     -13053.462     -3703.5302     -2.5766882      3.5474773     -1.3246131      8.6943445      7.5294034      29.94043       1959.9972    
       144   0             -241.92124     -9927.8091     -13027.126     -13053.285     -3703.0166     -2.4983261      3.3407135     -1.5168949      8.6943445      7.5294034      29.94043       1959.9972    
       145   0             -241.92124     -9926.9726     -13026.455     -13052.636     -3701.827      -2.5095456      3.350703      -1.543845       8.6943445      7.5294034      29.94043       1959.9972    
       146   0             -241.92124     -9926.8803     -13026.418     -13052.509     -3701.7134     -2.5357053      3.429138      -1.4655758      8.6943445      7.5294034      29.94043       1959.9972    
       147   0             -241.92124     -9927.2318     -13026.693     -13052.772     -3702.2303     -2.5386325      3.454118      -1.4432444      8.6943445      7.5294034      29.94043       1959.9972    
       148   0             -241.92124     -9927.3646     -13026.755     -13052.902     -3702.4376     -2.5308533      3.4159765     -1.5146885      8.6943445      7.5294034      29.94043       1959.9972    
       149   0             -241.92124     -9927.577      -13026.897     -13053.066     -3702.7682     -2.5324069      3.4079865     -1.5373375      8.6943445      7.5294034      29.94043       1959.9972    
       150   0             -241.92124     -9927.3886     -13026.76      -13052.876     -3702.5301     -2.5492252      3.4535669     -1.4765274      8.6943445      7.5294034      29.94043       1959.9972    
       151   0             -241.92124     -9927.4011     -13026.773     -13052.887     -3702.5425     -2.5527819      3.461742      -1.4727531      8.6943445      7.5294034      29.94043       1959.9972    
       152   0             -241.92124     -9927.3832     -13026.738     -13052.895     -3702.516      -2.540032       3.4305917     -1.5233262      8.6943445      7.5294034      29.94043       1959.9972    
       153   0             -241.92124     -9927.3625     -13026.712     -13052.879     -3702.4958     -2.5378438      3.427201      -1.5334725      8.6943445      7.5294034      29.94043       1959.9972    
       154   0             -241.92124     -9927.4171     -13026.767     -13052.912     -3702.5718     -2.546554       3.447606      -1.5056971      8.6943445      7.5294034      29.94043       1959.9972    
       155   0             -241.92124     -9927.3729     -13026.735     -13052.873     -3702.5107     -2.5460138      3.4460553     -1.499796       8.6943445      7.5294034      29.94043       1959.9972    
       156   0             -241.92124     -9927.4147     -13026.762     -13052.91      -3702.5718     -2.541948       3.4387789     -1.5147423      8.6943445      7.5294034      29.94043       1959.9972    
       157   0             -241.92124     -9927.3716     -13026.718     -13052.877     -3702.5198     -2.5474823      3.4512809     -1.5251189      8.6943445      7.5294034      29.94043       1959.9972    
       158   0             -241.92124     -9927.3883     -13026.733     -13052.888     -3702.5435     -2.5507747      3.4562522     -1.5198377      8.6943445      7.5294034      29.94043       1959.9972    
       159   0             -241.92124     -9927.384      -13026.733     -13052.882     -3702.5374     -2.5475309      3.4486964     -1.5120708      8.6943445      7.5294034      29.94043       1959.9972    
       160   0             -241.92124     -9927.3797     -13026.728     -13052.88      -3702.5313     -2.5469273      3.4489091     -1.5167813      8.6943445      7.5294034      29.94043       1959.9972    
       161   0             -241.92124     -9927.3855     -13026.731     -13052.886     -3702.5393     -2.5484412      3.4529092     -1.5210114      8.6943445      7.5294034      29.94043       1959.9972    
       162   0             -241.92124     -9927.3733     -13026.723     -13052.874     -3702.5232     -2.5480321      3.451011      -1.5166383      8.6943445      7.5294034      29.94043       1959.9972    
       163   0             -241.92124     -9927.3787     -13026.727     -13052.878     -3702.531      -2.5472949      3.4486237     -1.5149758      8.6943445      7.5294034      29.94043       1959.9972    
       164   0             -241.92124     -9927.3754     -13026.722     -13052.877     -3702.5264     -2.548263       3.4510806     -1.5200869      8.6943445      7.5294034      29.94043       1959.9972    
       165   0             -241.92124     -9927.3795     -13026.725     -13052.881     -3702.5326     -2.5490325      3.4530437     -1.5212702      8.6943445      7.5294034      29.94043       1959.9972    
       166   0             -241.92124     -9927.3829     -13026.729     -13052.882     -3702.5378     -2.5487262      3.4523603     -1.5178665      8.6943445      7.5294034      29.94043       1959.9972    
       167   0             -241.92124     -9927.3804     -13026.727     -13052.88      -3702.5343     -2.548224       3.4510808     -1.5175411      8.6943445      7.5294034      29.94043       1959.9972    
       168   0             -241.92124     -9927.3813     -13026.727     -13052.881     -3702.5353     -2.5482735      3.4511651     -1.5194656      8.6943445      7.5294034      29.94043       1959.9972    
       169   0             -241.92124     -9927.3756     -13026.722     -13052.877     -3702.5276     -2.5487837      3.4524065     -1.5205241      8.6943445      7.5294034      29.94043       1959.9972    
       170   0             -241.92124     -9927.3772     -13026.724     -13052.878     -3702.5298     -2.5488376      3.4525071     -1.5195345      8.6943445      7.5294034      29.94043       1959.9972    
       171   0             -241.92124     -9927.3778     -13026.725     -13052.878     -3702.5308     -2.548569       3.4518809     -1.5185798      8.6943445      7.5294034      29.94043       1959.9972    
       172   0             -241.92124     -9927.3796     -13026.726     -13052.879     -3702.5335     -2.5486058      3.4519828     -1.5189484      8.6943445      7.5294034      29.94043       1959.9972    
       173   0             -241.92124     -9927.3805     -13026.726     -13052.88      -3702.5349     -2.5488276      3.45249       -1.519552       8.6943445      7.5294034      29.94043       1959.9972    
       174   0             -241.92124     -9927.3796     -13026.726     -13052.88      -3702.5337     -2.548821       3.4524635     -1.5192894      8.6943445      7.5294034      29.94043       1959.9972    
       175   0             -241.92124     -9927.3791     -13026.725     -13052.879     -3702.533      -2.5487397      3.4522809     -1.5189185      8.6943445      7.5294034      29.94043       1959.9972    
       176   0             -241.92124     -9927.3781     -13026.724     -13052.878     -3702.5316     -2.5487909      3.4523884     -1.51922        8.6943445      7.5294034      29.94043       1959.9972    
       177   0             -241.92124     -9927.3786     -13026.725     -13052.879     -3702.5322     -2.5488286      3.452462      -1.5194386      8.6943445      7.5294034      29.94043       1959.9972    
       178   0             -241.92124     -9927.379      -13026.725     -13052.879     -3702.5329     -2.5487821      3.4523646     -1.5192526      8.6943445      7.5294034      29.94043       1959.9972    
       179   0             -241.92124     -9927.3795     -13026.726     -13052.879     -3702.5336     -2.5487672      3.452344      -1.5191466      8.6943445      7.5294034      29.94043       1959.9972    
       180   0             -241.92124     -9927.3795     -13026.726     -13052.879     -3702.5337     -2.5488027      3.452429      -1.5192643      8.6943445      7.5294034      29.94043       1959.9972    
       181   0             -241.92124     -9927.379      -13026.725     -13052.879     -3702.533      -2.5488248      3.4524631     -1.5193598      8.6943445      7.5294034      29.94043       1959.9972    
       182   0             -241.92124     -9927.3789     -13026.725     -13052.879     -3702.5327     -2.5488235      3.4524468     -1.5193258      8.6943445      7.5294034      29.94043       1959.9972    
       183   0             -241.92124     -9927.3788     -13026.725     -13052.879     -3702.5326     -2.5488142      3.452433      -1.5192628      8.6943445      7.5294034      29.94043       1959.9972    
       184   0             -241.92124     -9927.3789     -13026.725     -13052.879     -3702.5328     -2.5488132      3.4524381     -1.519267       8.6943445      7.5294034      29.94043       1959.9972    
       185   0             -241.92124     -9927.379      -13026.725     -13052.879     -3702.533      -2.5488177      3.4524495     -1.5193115      8.6943445      7.5294034      29.94043       1959.9972    
       186   0             -241.92124     -9927.3791     -13026.725     -13052.879     -3702.533      -2.5488155      3.4524414     -1.5193011      8.6943445      7.5294034      29.94043       1959.9972    
       187   0             -241.92124     -9927.379      -13026.725     -13052.879     -3702.533      -2.5488115      3.4524305     -1.5192736      8.6943445      7.5294034      29.94043       1959.9972    
       188   0             -241.92124     -9927.3789     -13026.725     -13052.879     -3702.5328     -2.5488186      3.4524471     -1.5192914      8.6943445      7.5294034      29.94043       1959.9972    
       189   0             -241.92124     -9927.3789     -13026.725     -13052.879     -3702.5329     -2.5488238      3.4524581     -1.5193064      8.6943445      7.5294034      29.94043       1959.9972    
       190   0             -241.92124     -9927.3789     -13026.725     -13052.879     -3702.5329     -2.5488213      3.4524522     -1.5192998      8.6943445      7.5294034      29.94043       1959.9972    
       191   0             -241.92124     -9927.379      -13026.725     -13052.879     -3702.5329     -2.5488193      3.4524482     -1.5192962      8.6943445      7.5294034      29.94043       1959.9972    
       192   0             -241.92124     -9927.379      -13026.725     -13052.879     -3702.5329     -2.5488208      3.4524517     -1.5193011      8.6943445      7.5294034      29.94043       1959.9972    
       193   0             -241.92124     -9927.379      -13026.725     -13052.879     -3702.5329     -2.5488213      3.4524531     -1.5193017      8.6943445      7.5294034      29.94043       1959.9972    
       194   0             -241.92124     -9927.379      -13026.725     -13052.879     -3702.5329     -2.5488207      3.4524523     -1.5192988      8.6943445      7.5294034      29.94043       1959.9972    
       195   0             -241.92124     -9927.379      -13026.725     -13052.879     -3702.5329     -2.5488209      3.452452      -1.5192989      8.6943445      7.5294034      29.94043       1959.9972    
       196   0             -241.92124     -9927.379      -13026.725     -13052.879     -3702.5329     -2.5488213      3.4524524     -1.5193012      8.6943445      7.5294034      29.94043       1959.9972    
       197   0             -241.92124     -9927.379      -13026.725     -13052.879     -3702.5329     -2.5488214      3.452453      -1.5193024      8.6943445      7.5294034      29.94043       1959.9972    
       198   0             -241.92124     -9927.379      -13026.725     -13052.879     -3702.5329     -2.5488214      3.4524534     -1.5193006      8.6943445      7.5294034      29.94043       1959.9972    
       199   0             -241.92124     -9927.379      -13026.725     -13052.879     -3702.5329     -2.5488214      3.4524533     -1.519299       8.6943445      7.5294034      29.94043       1959.9972    
       200   0             -241.92124     -9927.379      -13026.725     -13052.879     -3702.5329     -2.5488213      3.4524529     -1.5193004      8.6943445      7.5294034      29.94043       1959.9972    
Loop time of 0.0386932 on 48 procs for 100 steps with 60 atoms

99.5% CPU use with 48 MPI tasks x no OpenMP threads

Minimization stats:
  Stopping criterion = max iterations
  Energy initial, next-to-last, final = 
      -241.17756659672  -241.921237889391  -241.921237889391
  Force two-norm initial, final = 2.1438271 3.6231699e-09
  Force max component initial, final = 0.41425939 7.5906803e-10
  Final line search alpha, max atom move = 1 7.5906803e-10
  Iterations, force evaluations = 100 178

MPI task timing breakdown:
Section |  min time  |  avg time  |  max time  |%varavg| %total
---------------------------------------------------------------
Pair    | 1.8444e-05 | 0.0091909  | 0.022258   |   6.1 | 23.75
Neigh   | 0          | 0          | 0          |   0.0 |  0.00
Comm    | 0.0060686  | 0.018852   | 0.028385   |   4.1 | 48.72
Output  | 0.0037164  | 0.0037934  | 0.0043362  |   0.1 |  9.80
Modify  | 0          | 0          | 0          |   0.0 |  0.00
Other   |            | 0.006857   |            |       | 17.72

Nlocal:           1.25 ave           3 max           0 min
Histogram: 8 0 0 23 0 0 14 0 0 3
Nghost:         180.75 ave         183 max         177 min
Histogram: 2 7 0 5 0 3 7 0 18 6
Neighs:              0 ave           0 max           0 min
Histogram: 48 0 0 0 0 0 0 0 0 0
FullNghs:           52 ave         126 max           0 min
Histogram: 8 0 0 23 0 0 14 0 0 3

Total # of neighbors = 2496
Ave neighs/atom = 41.6
Neighbor list builds = 0
Dangerous builds = 0

# Obtain new stress tensor

variable tmp equal pe
variable e1 equal ${tmp}
variable e1 equal -241.921237889391
variable tmp equal press
variable p1 equal ${tmp}
variable p1 equal -9927.37897839329
variable tmp equal pxx
variable pxx1 equal ${tmp}
variable pxx1 equal -13026.7250629297
variable tmp equal pyy
variable pyy1 equal ${tmp}
variable pyy1 equal -13052.8789591275
variable tmp equal pzz
variable pzz1 equal ${tmp}
variable pzz1 equal -3702.5329131226
variable tmp equal pxy
variable pxy1 equal ${tmp}
variable pxy1 equal -2.54882133259418
variable tmp equal pxz
variable pxz1 equal ${tmp}
variable pxz1 equal 3.45245290062778
variable tmp equal pyz
variable pyz1 equal ${tmp}
variable pyz1 equal -1.51930037690063

# Compute elastic constant from pressure tensor

variable C1pos equal ${d1}
variable C1pos equal -644262.85221713
variable C2pos equal ${d2}
variable C2pos equal -644326.66123793
variable C3pos equal ${d3}
variable C3pos equal -1574802.41824119
variable C4pos equal ${d4}
variable C4pos equal 543.651839475482
variable C5pos equal ${d5}
variable C5pos equal -1251.28431003812
variable C6pos equal ${d6}
variable C6pos equal -373.913384220977

# Combine positive and negative

variable C1${dir} equal 0.5*(${C1neg}+${C1pos})
variable C11 equal 0.5*(${C1neg}+${C1pos})
variable C11 equal 0.5*(644397.55125299+${C1pos})
variable C11 equal 0.5*(644397.55125299+-644262.85221713)
variable C2${dir} equal 0.5*(${C2neg}+${C2pos})
variable C21 equal 0.5*(${C2neg}+${C2pos})
variable C21 equal 0.5*(644354.8215744+${C2pos})
variable C21 equal 0.5*(644354.8215744+-644326.66123793)
variable C3${dir} equal 0.5*(${C3neg}+${C3pos})
variable C31 equal 0.5*(${C3neg}+${C3pos})
variable C31 equal 0.5*(1574830.69198238+${C3pos})
variable C31 equal 0.5*(1574830.69198238+-1574802.41824119)
variable C4${dir} equal 0.5*(${C4neg}+${C4pos})
variable C41 equal 0.5*(${C4neg}+${C4pos})
variable C41 equal 0.5*(-565.152245741025+${C4pos})
variable C41 equal 0.5*(-565.152245741025+543.651839475482)
variable C5${dir} equal 0.5*(${C5neg}+${C5pos})
variable C51 equal 0.5*(${C5neg}+${C5pos})
variable C51 equal 0.5*(1251.04599002314+${C5pos})
variable C51 equal 0.5*(1251.04599002314+-1251.28431003812)
variable C6${dir} equal 0.5*(${C6neg}+${C6pos})
variable C61 equal 0.5*(${C6neg}+${C6pos})
variable C61 equal 0.5*(374.052307336914+${C6pos})
variable C61 equal 0.5*(374.052307336914+-373.913384220977)

# Delete dir to make sure it is not reused

variable dir delete

# uyy Perturbation

variable dir equal 2
include displace.mod
# NOTE: This script should not need to be
# modified. See in.elastic for more info.
#
# Find which reference length to use

if "${dir} == 1" then    "variable len0 equal ${lx0}"
if "${dir} == 2" then    "variable len0 equal ${ly0}"
variable len0 equal ${ly0}
variable len0 equal 7.52940340967919
if "${dir} == 3" then    "variable len0 equal ${lz0}"
if "${dir} == 4" then    "variable len0 equal ${lz0}"
if "${dir} == 5" then    "variable len0 equal ${lz0}"
if "${dir} == 6" then    "variable len0 equal ${ly0}"

# Reset box and simulation parameters

clear
box tilt large
read_restart restart.equil
Reading restart file ...
  restart file = 24 Mar 2022, LAMMPS = 24 Mar 2022
  restoring atom style atomic from restart
  triclinic box = (0.042726577 0.037058295 0.15121177) to (8.7370624 7.5664617 30.091642) with tilt (-4.3471038 0 0)
  3 by 2 by 8 MPI processor grid
  pair style nep stores no restart info
  60 atoms
  read_restart CPU = 0.101 seconds
include potential.mod
# NOTE: This script can be modified for different pair styles
# See in.elastic for more info.

# Choose potential
#pair_style	sw
#pair_coeff * * Si.sw Si

# MTP potential
pair_style  nep
pair_coeff  * *  nep_y2026_m04_d08_h20_m24_s14_generation100000.txt  Bi Sb Te


# Setup neighbor style
neighbor 1.0 nsq
neigh_modify once no every 1 delay 0 check yes

# Setup minimization style
min_style	     cg
min_modify	     dmax ${dmax} line quadratic
min_modify	     dmax 0.01 line quadratic

# Setup output
thermo		1
thermo_style custom step temp pe press pxx pyy pzz pxy pxz pyz lx ly lz vol
thermo_modify norm no

# Negative deformation

variable delta equal -${up}*${len0}
variable delta equal -1e-06*${len0}
variable delta equal -1e-06*7.52940340967919
variable deltaxy equal -${up}*xy
variable deltaxy equal -1e-06*xy
variable deltaxz equal -${up}*xz
variable deltaxz equal -1e-06*xz
variable deltayz equal -${up}*yz
variable deltayz equal -1e-06*yz
if "${dir} == 1" then    "change_box all x delta 0 ${delta} xy delta ${deltaxy} xz delta ${deltaxz} remap units box"
if "${dir} == 2" then    "change_box all y delta 0 ${delta} yz delta ${deltayz} remap units box"
change_box all y delta 0 ${delta} yz delta ${deltayz} remap units box
change_box all y delta 0 -7.52940340967919e-06 yz delta ${deltayz} remap units box
change_box all y delta 0 -7.52940340967919e-06 yz delta -0 remap units box
Changing box ...
  triclinic box = (0.042726577 0.037058295 0.15121177) to (8.7370624 7.5664542 30.091642) with tilt (-4.3471038 0 0)
  triclinic box = (0.042726577 0.037058295 0.15121177) to (8.7370624 7.5664542 30.091642) with tilt (-4.3471038 0 0)
if "${dir} == 3" then    "change_box all z delta 0 ${delta} remap units box"
if "${dir} == 4" then    "change_box all yz delta ${delta} remap units box"
if "${dir} == 5" then    "change_box all xz delta ${delta} remap units box"
if "${dir} == 6" then    "change_box all xy delta ${delta} remap units box"

# Relax atoms positions

minimize ${etol} ${ftol} ${maxiter} ${maxeval}
minimize 0 ${ftol} ${maxiter} ${maxeval}
minimize 0 1e-18 ${maxiter} ${maxeval}
minimize 0 1e-18 100 ${maxeval}
minimize 0 1e-18 100 1000
Neighbor list info ...
  update every 1 steps, delay 0 steps, check yes
  max neighbors/atom: 2000, page size: 100000
  master list distance cutoff = 7
  ghost atom cutoff = 7
  1 neighbor lists, perpetual/occasional/extra = 1 0 0
  (1) pair nep, perpetual
      attributes: full, newton on
      pair build: full/nsq
      stencil: none
      bin: none
Per MPI rank memory allocation (min/avg/max) = 4.085 | 4.085 | 4.085 Mbytes
   Step          Temp          PotEng         Press           Pxx            Pyy            Pzz            Pxy            Pxz            Pyz             Lx             Ly             Lz           Volume    
       100   0             -241.17761     -19471.521     -19469.17      -19495.271     -19450.121     -6.3210032     -8.9939147      4.2580294      8.6943358      7.5293959      29.94043       1959.9933    
       101   0             -241.28214     -19387.484     -19468.798     -19487.61      -19206.043     -4.1525747     -10.881373     -1.8565921      8.6943358      7.5293959      29.94043       1959.9933    
       102   0             -241.37315     -19219.155     -19398.696     -19411.49      -18847.28      -3.1253076     -12.191865     -5.3224874      8.6943358      7.5293959      29.94043       1959.9933    
       103   0             -241.45125     -18969.712     -19265.555     -19273.448     -18370.134     -2.9740319     -13.011751     -6.533587       8.6943358      7.5293959      29.94043       1959.9933    
       104   0             -241.51873     -18645.798     -19077.273     -19081.154     -17778.966     -3.4011615     -13.463438     -5.9851792      8.6943358      7.5293959      29.94043       1959.9933    
       105   0             -241.57752     -18260.91      -18841.273     -18841.863     -17099.594     -4.1403188     -13.656068     -4.1316826      8.6943358      7.5293959      29.94043       1959.9933    
       106   0             -241.6291      -17823.847     -18563.968     -18561.869     -16345.704     -4.9662579     -13.687069     -1.3941123      8.6943358      7.5293959      29.94043       1959.9933    
       107   0             -241.67463     -17342.456     -18251.17      -18246.912     -15529.286     -5.7004445     -13.639332      1.8453528      8.6943358      7.5293959      29.94043       1959.9933    
       108   0             -241.71501     -16824.014     -17908.105     -17902.179     -14661.757     -6.2152153     -13.577825      5.2512889      8.6943358      7.5293959      29.94043       1959.9933    
       109   0             -241.75091     -16274.761     -17539.326     -17532.209     -13752.75      -6.4336982     -13.546196      8.5453099      8.6943358      7.5293959      29.94043       1959.9933    
       110   0             -241.78281     -15700.008     -17148.665     -17140.834     -12810.525     -6.3258256     -13.564079      11.512973      8.6943358      7.5293959      29.94043       1959.9933    
       111   0             -241.81107     -15104.026     -16739.189     -16731.131     -11841.759     -5.9011465     -13.625969      14.005486      8.6943358      7.5293959      29.94043       1959.9933    
       112   0             -241.83591     -14490.038     -16313.202     -16305.414     -10851.498     -5.1998113     -13.701743      15.935113      8.6943358      7.5293959      29.94043       1959.9933    
       113   0             -241.8575      -13860.29      -15872.304     -15865.296     -9843.2702     -4.2833255     -13.737969      17.265378      8.6943358      7.5293959      29.94043       1959.9933    
       114   0             -241.87588     -13216.209     -15417.502     -15411.8       -8819.3239     -3.2267006     -13.657975      17.998184      8.6943358      7.5293959      29.94043       1959.9933    
       115   0             -241.89109     -12558.673     -14949.406     -14945.565     -7781.0472     -2.1138361     -13.356945      18.159969      8.6943358      7.5293959      29.94043       1959.9933    
       116   0             -241.90306     -11888.521     -14468.605     -14467.219     -6729.7405     -1.0392114     -12.684598      17.787984      8.6943358      7.5293959      29.94043       1959.9933    
       117   0             -241.91174     -11207.823     -13976.61      -13978.337     -5668.5229     -0.12387048    -11.396451      16.914713      8.6943358      7.5293959      29.94043       1959.9933    
       118   0             -241.91701     -10524.283     -13479.147     -13484.745     -4608.9565      0.42471924    -9.0074048      15.535354      8.6943358      7.5293959      29.94043       1959.9933    
       119   0             -241.91898     -9876.7453     -13005.148     -13015.584     -3609.5041      0.029359933   -4.1670744      13.428495      8.6943358      7.5293959      29.94043       1959.9933    
       120   0             -241.91957     -9921.8542     -13038.569     -13050.89      -3676.1031     -1.8182486      0.61334138     11.416032      8.6943358      7.5293959      29.94043       1959.9933    
       121   0             -241.91995     -9908.4407     -13026.85      -13041.629     -3656.843      -1.2619295     -0.78758851     8.7243477      8.6943358      7.5293959      29.94043       1959.9933    
       122   0             -241.92012     -9882.589      -13003.185     -13018.088     -3626.4939     -3.0788276      4.8205279      7.16673        8.6943358      7.5293959      29.94043       1959.9933    
       123   0             -241.92061     -9991.0021     -13088.236     -13104.287     -3780.483      -4.4546888      10.838269      5.3105582      8.6943358      7.5293959      29.94043       1959.9933    
       124   0             -241.92088     -9953.9883     -13056.969     -13076.563     -3728.4328     -1.8269437      3.2505243      4.2273088      8.6943358      7.5293959      29.94043       1959.9933    
       125   0             -241.92101     -9929.6818     -13034.726     -13060.896     -3693.4245     -1.2271557     -0.47542083    -0.98085516     8.6943358      7.5293959      29.94043       1959.9933    
       126   0             -241.9211      -9897.2121     -13007.408     -13033.256     -3650.9717     -3.0867159      4.1956665     -3.1215905      8.6943358      7.5293959      29.94043       1959.9933    
       127   0             -241.92114     -9889.2556     -13001.487     -13023.995     -3642.2855     -3.1887303      5.4053991     -0.061080516    8.6943358      7.5293959      29.94043       1959.9933    
       128   0             -241.92119     -9927.6855     -13032.333     -13054.335     -3696.3888     -2.2370048      3.2886375      2.187464       8.6943358      7.5293959      29.94043       1959.9933    
       129   0             -241.92122     -9936.9799     -13036.11      -13061.132     -3713.6983     -1.9328497      2.2030331     -0.4744791      8.6943358      7.5293959      29.94043       1959.9933    
       130   0             -241.92124     -9946.771      -13042.847     -13068.497     -3728.9684     -2.0920489      2.6098178     -1.3451913      8.6943358      7.5293959      29.94043       1959.9933    
       131   0             -241.92125     -9928.881      -13029.574     -13053.881     -3703.188      -2.2621581      2.9951016      0.37651342     8.6943358      7.5293959      29.94043       1959.9933    
       132   0             -241.92126     -9921.6362     -13023.875     -13048.586     -3692.4475     -2.3491869      2.9321382      0.045927131    8.6943358      7.5293959      29.94043       1959.9933    
       133   0             -241.92126     -9919.9234     -13021.599     -13047.237     -3690.9337     -2.5189175      3.1638821     -1.1094237      8.6943358      7.5293959      29.94043       1959.9933    
       134   0             -241.92126     -9922.37       -13023.31      -13048.56      -3695.2396     -2.7740151      3.7303252     -0.60270877     8.6943358      7.5293959      29.94043       1959.9933    
       135   0             -241.92127     -9934.2684     -13032.952     -13057.82      -3712.0334     -2.6979687      3.6295114      0.082680369    8.6943358      7.5293959      29.94043       1959.9933    
       136   0             -241.92127     -9933.1859     -13031.528     -13057.057     -3710.9725     -2.1303783      2.5633219     -0.87398772     8.6943358      7.5293959      29.94043       1959.9933    
       137   0             -241.92127     -9931.8684     -13030.028     -13056.139     -3709.4379     -2.1009156      2.606005      -1.5540365      8.6943358      7.5293959      29.94043       1959.9933    
       138   0             -241.92127     -9926.7726     -13026.215     -13052.133     -3701.9698     -2.6704396      3.7372841     -1.2375143      8.6943358      7.5293959      29.94043       1959.9933    
       139   0             -241.92127     -9925.4658     -13025.278     -13051.145     -3699.9744     -2.6929958      3.7083295     -1.169713       8.6943358      7.5293959      29.94043       1959.9933    
       140   0             -241.92127     -9926.0326     -13025.57      -13051.648     -3700.88       -2.4422378      3.1701954     -1.4258115      8.6943358      7.5293959      29.94043       1959.9933    
       141   0             -241.92127     -9926.6691     -13025.949     -13052.083     -3701.9759     -2.4306307      3.1822287     -1.4960773      8.6943358      7.5293959      29.94043       1959.9933    
       142   0             -241.92127     -9928.2313     -13027.283     -13053.236     -3704.1751     -2.5797296      3.5442038     -1.3186134      8.6943358      7.5293959      29.94043       1959.9933    
       143   0             -241.92127     -9927.5315     -13026.695     -13052.647     -3703.2522     -2.5759161      3.5462794     -1.3204584      8.6943358      7.5293959      29.94043       1959.9933    
       144   0             -241.92127     -9927.1693     -13026.312     -13052.466     -3702.7306     -2.4976159      3.3397103     -1.5132216      8.6943358      7.5293959      29.94043       1959.9933    
       145   0             -241.92127     -9926.3313     -13025.64      -13051.816     -3701.5382     -2.5089287      3.3499678     -1.540412       8.6943358      7.5293959      29.94043       1959.9933    
       146   0             -241.92127     -9926.2375     -13025.602     -13051.688     -3701.4227     -2.5350177      3.4282782     -1.4619249      8.6943358      7.5293959      29.94043       1959.9933    
       147   0             -241.92127     -9926.5916     -13025.879     -13051.953     -3701.9433     -2.5378426      3.4529652     -1.4394569      8.6943358      7.5293959      29.94043       1959.9933    
       148   0             -241.92127     -9926.7242     -13025.94      -13052.082     -3702.1505     -2.5301792      3.415105      -1.5109205      8.6943358      7.5293959      29.94043       1959.9933    
       149   0             -241.92127     -9926.9378     -13026.083     -13052.247     -3702.4827     -2.5318203      3.407326      -1.5337384      8.6943358      7.5293959      29.94043       1959.9933    
       150   0             -241.92127     -9926.7489     -13025.946     -13052.057     -3702.2441     -2.5485665      3.4527392     -1.4728668      8.6943358      7.5293959      29.94043       1959.9933    
       151   0             -241.92127     -9926.7615     -13025.959     -13052.069     -3702.2565     -2.5520779      3.4607967     -1.4690317      8.6943358      7.5293959      29.94043       1959.9933    
       152   0             -241.92127     -9926.7432     -13025.924     -13052.076     -3702.2295     -2.5393408      3.429685      -1.5197029      8.6943358      7.5293959      29.94043       1959.9933    
       153   0             -241.92127     -9926.7222     -13025.898     -13052.06      -3702.2088     -2.5371738      3.4263577     -1.5298503      8.6943358      7.5293959      29.94043       1959.9933    
       154   0             -241.92127     -9926.7768     -13025.953     -13052.093     -3702.2848     -2.545867       3.4467155     -1.502059       8.6943358      7.5293959      29.94043       1959.9933    
       155   0             -241.92127     -9926.7327     -13025.921     -13052.053     -3702.2238     -2.5453251      3.4451521     -1.4961168      8.6943358      7.5293959      29.94043       1959.9933    
       156   0             -241.92127     -9926.7746     -13025.948     -13052.091     -3702.2852     -2.5412753      3.4379061     -1.5110367      8.6943358      7.5293959      29.94043       1959.9933    
       157   0             -241.92127     -9926.7318     -13025.904     -13052.058     -3702.2337     -2.5468299      3.4504578     -1.5214757      8.6943358      7.5293959      29.94043       1959.9933    
       158   0             -241.92127     -9926.7484     -13025.919     -13052.069     -3702.2572     -2.550119       3.4554155     -1.5162025      8.6943358      7.5293959      29.94043       1959.9933    
       159   0             -241.92127     -9926.7441     -13025.919     -13052.063     -3702.2509     -2.5468432      3.4477892     -1.5083962      8.6943358      7.5293959      29.94043       1959.9933    
       160   0             -241.92127     -9926.7395     -13025.914     -13052.06      -3702.2445     -2.5462447      3.4480219     -1.5131083      8.6943358      7.5293959      29.94043       1959.9933    
       161   0             -241.92127     -9926.7454     -13025.917     -13052.067     -3702.2526     -2.5477702      3.4520529     -1.5173598      8.6943358      7.5293959      29.94043       1959.9933    
       162   0             -241.92127     -9926.7332     -13025.908     -13052.055     -3702.2365     -2.5473575      3.4501455     -1.5129982      8.6943358      7.5293959      29.94043       1959.9933    
       163   0             -241.92127     -9926.7387     -13025.913     -13052.059     -3702.2443     -2.5466122      3.4477348     -1.5113171      8.6943358      7.5293959      29.94043       1959.9933    
       164   0             -241.92127     -9926.7353     -13025.908     -13052.058     -3702.2397     -2.5475899      3.4502156     -1.5164396      8.6943358      7.5293959      29.94043       1959.9933    
       165   0             -241.92127     -9926.7395     -13025.911     -13052.062     -3702.246      -2.5483656      3.4521944     -1.5176259      8.6943358      7.5293959      29.94043       1959.9933    
       166   0             -241.92127     -9926.7429     -13025.915     -13052.063     -3702.2511     -2.548054       3.4514977     -1.5142163      8.6943358      7.5293959      29.94043       1959.9933    
       167   0             -241.92127     -9926.7404     -13025.913     -13052.06      -3702.2477     -2.5475484      3.4502103     -1.5138909      8.6943358      7.5293959      29.94043       1959.9933    
       168   0             -241.92127     -9926.7412     -13025.913     -13052.062     -3702.2487     -2.5475985      3.4502965     -1.5158124      8.6943358      7.5293959      29.94043       1959.9933    
       169   0             -241.92127     -9926.7355     -13025.908     -13052.058     -3702.2409     -2.5481115      3.4515449     -1.5168719      8.6943358      7.5293959      29.94043       1959.9933    
       170   0             -241.92127     -9926.7371     -13025.91      -13052.059     -3702.2431     -2.5481651      3.4516444     -1.5158834      8.6943358      7.5293959      29.94043       1959.9933    
       171   0             -241.92127     -9926.7377     -13025.91      -13052.059     -3702.2442     -2.5478942      3.4510125     -1.514927       8.6943358      7.5293959      29.94043       1959.9933    
       172   0             -241.92127     -9926.7395     -13025.911     -13052.06      -3702.2469     -2.5479315      3.4511156     -1.5152949      8.6943358      7.5293959      29.94043       1959.9933    
       173   0             -241.92127     -9926.7404     -13025.912     -13052.061     -3702.2483     -2.5481548      3.4516262     -1.5158988      8.6943358      7.5293959      29.94043       1959.9933    
       174   0             -241.92127     -9926.7396     -13025.911     -13052.06      -3702.2471     -2.548148       3.4515996     -1.5156381      8.6943358      7.5293959      29.94043       1959.9933    
       175   0             -241.92127     -9926.7391     -13025.911     -13052.06      -3702.2463     -2.5480656      3.4514145     -1.5152666      8.6943358      7.5293959      29.94043       1959.9933    
       176   0             -241.92127     -9926.738      -13025.91      -13052.059     -3702.2449     -2.5481171      3.4515227     -1.5155677      8.6943358      7.5293959      29.94043       1959.9933    
       177   0             -241.92127     -9926.7385     -13025.91      -13052.06      -3702.2456     -2.5481554      3.4515976     -1.5157872      8.6943358      7.5293959      29.94043       1959.9933    
       178   0             -241.92127     -9926.7389     -13025.911     -13052.06      -3702.2462     -2.5481088      3.4514999     -1.515601       8.6943358      7.5293959      29.94043       1959.9933    
       179   0             -241.92127     -9926.7394     -13025.911     -13052.06      -3702.2469     -2.5480937      3.451479      -1.515495       8.6943358      7.5293959      29.94043       1959.9933    
       180   0             -241.92127     -9926.7395     -13025.911     -13052.06      -3702.247      -2.5481294      3.4515641     -1.5156124      8.6943358      7.5293959      29.94043       1959.9933    
       181   0             -241.92127     -9926.739      -13025.911     -13052.06      -3702.2463     -2.5481517      3.4515986     -1.5157078      8.6943358      7.5293959      29.94043       1959.9933    
       182   0             -241.92127     -9926.7388     -13025.911     -13052.06      -3702.2461     -2.5481503      3.4515823     -1.5156739      8.6943358      7.5293959      29.94043       1959.9933    
       183   0             -241.92127     -9926.7387     -13025.911     -13052.06      -3702.246      -2.5481408      3.4515681     -1.5156109      8.6943358      7.5293959      29.94043       1959.9933    
       184   0             -241.92127     -9926.7389     -13025.911     -13052.06      -3702.2462     -2.5481397      3.4515731     -1.5156151      8.6943358      7.5293959      29.94043       1959.9933    
       185   0             -241.92127     -9926.739      -13025.911     -13052.06      -3702.2463     -2.5481444      3.4515847     -1.5156596      8.6943358      7.5293959      29.94043       1959.9933    
       186   0             -241.92127     -9926.739      -13025.911     -13052.06      -3702.2464     -2.5481421      3.4515766     -1.5156493      8.6943358      7.5293959      29.94043       1959.9933    
       187   0             -241.92127     -9926.739      -13025.911     -13052.06      -3702.2463     -2.5481381      3.4515655     -1.5156218      8.6943358      7.5293959      29.94043       1959.9933    
       188   0             -241.92127     -9926.7389     -13025.911     -13052.06      -3702.2462     -2.5481452      3.4515822     -1.5156395      8.6943358      7.5293959      29.94043       1959.9933    
       189   0             -241.92127     -9926.7389     -13025.911     -13052.06      -3702.2462     -2.5481505      3.4515934     -1.5156546      8.6943358      7.5293959      29.94043       1959.9933    
       190   0             -241.92127     -9926.7389     -13025.911     -13052.06      -3702.2462     -2.548148       3.4515874     -1.515648       8.6943358      7.5293959      29.94043       1959.9933    
       191   0             -241.92127     -9926.7389     -13025.911     -13052.06      -3702.2463     -2.548146       3.4515834     -1.5156444      8.6943358      7.5293959      29.94043       1959.9933    
       192   0             -241.92127     -9926.7389     -13025.911     -13052.06      -3702.2463     -2.5481474      3.4515869     -1.5156493      8.6943358      7.5293959      29.94043       1959.9933    
       193   0             -241.92127     -9926.7389     -13025.911     -13052.06      -3702.2463     -2.5481479      3.4515883     -1.5156498      8.6943358      7.5293959      29.94043       1959.9933    
       194   0             -241.92127     -9926.7389     -13025.911     -13052.06      -3702.2463     -2.5481474      3.4515874     -1.5156469      8.6943358      7.5293959      29.94043       1959.9933    
       195   0             -241.92127     -9926.7389     -13025.911     -13052.06      -3702.2463     -2.5481475      3.4515871     -1.5156471      8.6943358      7.5293959      29.94043       1959.9933    
       196   0             -241.92127     -9926.7389     -13025.911     -13052.06      -3702.2463     -2.548148       3.4515875     -1.5156493      8.6943358      7.5293959      29.94043       1959.9933    
       197   0             -241.92127     -9926.7389     -13025.911     -13052.06      -3702.2463     -2.548148       3.4515882     -1.5156506      8.6943358      7.5293959      29.94043       1959.9933    
       198   0             -241.92127     -9926.7389     -13025.911     -13052.06      -3702.2463     -2.548148       3.4515886     -1.5156488      8.6943358      7.5293959      29.94043       1959.9933    
       199   0             -241.92127     -9926.7389     -13025.911     -13052.06      -3702.2463     -2.5481481      3.4515885     -1.5156472      8.6943358      7.5293959      29.94043       1959.9933    
       200   0             -241.92127     -9926.7389     -13025.911     -13052.06      -3702.2463     -2.548148       3.4515881     -1.5156485      8.6943358      7.5293959      29.94043       1959.9933    
Loop time of 0.0901503 on 48 procs for 100 steps with 60 atoms

98.4% CPU use with 48 MPI tasks x no OpenMP threads

Minimization stats:
  Stopping criterion = max iterations
  Energy initial, next-to-last, final = 
     -241.177614264457   -241.92126979243   -241.92126979243
  Force two-norm initial, final = 2.1438283 3.637116e-09
  Force max component initial, final = 0.41425275 7.6298107e-10
  Final line search alpha, max atom move = 1 7.6298107e-10
  Iterations, force evaluations = 100 178

MPI task timing breakdown:
Section |  min time  |  avg time  |  max time  |%varavg| %total
---------------------------------------------------------------
Pair    | 2.0117e-05 | 0.0092573  | 0.022293   |   6.1 | 10.27
Neigh   | 0          | 0          | 0          |   0.0 |  0.00
Comm    | 0.0066117  | 0.01917    | 0.028906   |   4.1 | 21.26
Output  | 0.0038153  | 0.0049902  | 0.056295   |  10.6 |  5.54
Modify  | 0          | 0          | 0          |   0.0 |  0.00
Other   |            | 0.05673    |            |       | 62.93

Nlocal:           1.25 ave           3 max           0 min
Histogram: 8 0 0 23 0 0 14 0 0 3
Nghost:         180.75 ave         183 max         177 min
Histogram: 2 7 0 5 0 3 7 0 18 6
Neighs:              0 ave           0 max           0 min
Histogram: 48 0 0 0 0 0 0 0 0 0
FullNghs:           52 ave         126 max           0 min
Histogram: 8 0 0 23 0 0 14 0 0 3

Total # of neighbors = 2496
Ave neighs/atom = 41.6
Neighbor list builds = 0
Dangerous builds = 0

# Obtain new stress tensor

variable tmp equal pxx
variable pxx1 equal ${tmp}
variable pxx1 equal -13025.9107423438
variable tmp equal pyy
variable pyy1 equal ${tmp}
variable pyy1 equal -13052.0597371604
variable tmp equal pzz
variable pzz1 equal ${tmp}
variable pzz1 equal -3702.24627333453
variable tmp equal pxy
variable pxy1 equal ${tmp}
variable pxy1 equal -2.54814798399354
variable tmp equal pxz
variable pxz1 equal ${tmp}
variable pxz1 equal 3.45158806029943
variable tmp equal pyz
variable pyz1 equal ${tmp}
variable pyz1 equal -1.51564853431948

# Compute elastic constant from pressure tensor

variable C1neg equal ${d1}
variable C1neg equal 644344.28427572
variable C2neg equal ${d2}
variable C2neg equal 644408.58343464
variable C3neg equal ${d3}
variable C3neg equal 1574831.08222
variable C4neg equal ${d4}
variable C4neg equal -543.286655217367
variable C5neg equal ${d5}
variable C5neg equal 1251.19782600529
variable C6neg equal ${d6}
variable C6neg equal 373.980719081041

# Reset box and simulation parameters

clear
box tilt large
read_restart restart.equil
Reading restart file ...
  restart file = 24 Mar 2022, LAMMPS = 24 Mar 2022
  restoring atom style atomic from restart
  triclinic box = (0.042726577 0.037058295 0.15121177) to (8.7370624 7.5664617 30.091642) with tilt (-4.3471038 0 0)
  3 by 2 by 8 MPI processor grid
  pair style nep stores no restart info
  60 atoms
  read_restart CPU = 0.010 seconds
include potential.mod
# NOTE: This script can be modified for different pair styles
# See in.elastic for more info.

# Choose potential
#pair_style	sw
#pair_coeff * * Si.sw Si

# MTP potential
pair_style  nep
pair_coeff  * *  nep_y2026_m04_d08_h20_m24_s14_generation100000.txt  Bi Sb Te


# Setup neighbor style
neighbor 1.0 nsq
neigh_modify once no every 1 delay 0 check yes

# Setup minimization style
min_style	     cg
min_modify	     dmax ${dmax} line quadratic
min_modify	     dmax 0.01 line quadratic

# Setup output
thermo		1
thermo_style custom step temp pe press pxx pyy pzz pxy pxz pyz lx ly lz vol
thermo_modify norm no

# Positive deformation

variable delta equal ${up}*${len0}
variable delta equal 1e-06*${len0}
variable delta equal 1e-06*7.52940340967919
variable deltaxy equal ${up}*xy
variable deltaxy equal 1e-06*xy
variable deltaxz equal ${up}*xz
variable deltaxz equal 1e-06*xz
variable deltayz equal ${up}*yz
variable deltayz equal 1e-06*yz
if "${dir} == 1" then    "change_box all x delta 0 ${delta} xy delta ${deltaxy} xz delta ${deltaxz} remap units box"
if "${dir} == 2" then    "change_box all y delta 0 ${delta} yz delta ${deltayz} remap units box"
change_box all y delta 0 ${delta} yz delta ${deltayz} remap units box
change_box all y delta 0 7.52940340967919e-06 yz delta ${deltayz} remap units box
change_box all y delta 0 7.52940340967919e-06 yz delta 0 remap units box
Changing box ...
  triclinic box = (0.042726577 0.037058295 0.15121177) to (8.7370624 7.5664692 30.091642) with tilt (-4.3471038 0 0)
  triclinic box = (0.042726577 0.037058295 0.15121177) to (8.7370624 7.5664692 30.091642) with tilt (-4.3471038 0 0)
if "${dir} == 3" then    "change_box all z delta 0 ${delta} remap units box"
if "${dir} == 4" then    "change_box all yz delta ${delta} remap units box"
if "${dir} == 5" then    "change_box all xz delta ${delta} remap units box"
if "${dir} == 6" then    "change_box all xy delta ${delta} remap units box"

# Relax atoms positions

minimize ${etol} ${ftol} ${maxiter} ${maxeval}
minimize 0 ${ftol} ${maxiter} ${maxeval}
minimize 0 1e-18 ${maxiter} ${maxeval}
minimize 0 1e-18 100 ${maxeval}
minimize 0 1e-18 100 1000
Neighbor list info ...
  update every 1 steps, delay 0 steps, check yes
  max neighbors/atom: 2000, page size: 100000
  master list distance cutoff = 7
  ghost atom cutoff = 7
  1 neighbor lists, perpetual/occasional/extra = 1 0 0
  (1) pair nep, perpetual
      attributes: full, newton on
      pair build: full/nsq
      stencil: none
      bin: none
Per MPI rank memory allocation (min/avg/max) = 4.085 | 4.085 | 4.085 Mbytes
   Step          Temp          PotEng         Press           Pxx            Pyy            Pzz            Pxy            Pxz            Pyz             Lx             Ly             Lz           Volume    
       100   0             -241.17757     -19472.467     -19469.538     -19496.954     -19450.91      -6.3210475     -8.9940899      3.7426025      8.6943358      7.5294109      29.94043       1959.9972    
       101   0             -241.28209     -19388.405     -19469.15      -19489.269     -19206.796     -4.1527001     -10.881492     -2.3574987      8.6943358      7.5294109      29.94043       1959.9972    
       102   0             -241.3731      -19220.058     -19399.037     -19413.131     -18848.006     -3.1254493     -12.191959     -5.8095842      8.6943358      7.5294109      29.94043       1959.9972    
       103   0             -241.4512      -18970.603     -19265.891     -19275.076     -18370.843     -2.974149      -13.011843     -7.0076319      8.6943358      7.5294109      29.94043       1959.9972    
       104   0             -241.51868     -18646.68      -19077.606     -19082.772     -17779.663     -3.4012368     -13.46354      -6.4467529      8.6943358      7.5294109      29.94043       1959.9972    
       105   0             -241.57747     -18261.787     -18841.607     -18843.475     -17100.281     -4.1403525     -13.656185     -4.581225       8.6943358      7.5294109      29.94043       1959.9972    
       106   0             -241.62905     -17824.721     -18564.303     -18563.476     -16346.384     -4.9662617     -13.687198     -1.8319642      8.6943358      7.5294109      29.94043       1959.9972    
       107   0             -241.67459     -17343.328     -18251.509     -18248.515     -15529.962     -5.7004365     -13.639467      1.4189288      8.6943358      7.5294109      29.94043       1959.9972    
       108   0             -241.71497     -16824.885     -17908.449     -17903.778     -14662.428     -6.2152151     -13.577959      4.8361029      8.6943358      7.5294109      29.94043       1959.9972    
       109   0             -241.75086     -16275.632     -17539.674     -17533.804     -13753.418     -6.4337237     -13.546321      8.1412536      8.6943358      7.5294109      29.94043       1959.9972    
       110   0             -241.78277     -15700.878     -17149.018     -17142.427     -12811.19      -6.3258902     -13.564192      11.120043      8.6943358      7.5294109      29.94043       1959.9972    
       111   0             -241.81103     -15104.895     -16739.547     -16732.72      -11842.419     -5.9012584     -13.626071      13.623819      8.6943358      7.5294109      29.94043       1959.9972    
       112   0             -241.83587     -14490.906     -16313.566     -16306.999     -10852.154     -5.199973      -13.70184       15.565036      8.6943358      7.5294109      29.94043       1959.9972    
       113   0             -241.85746     -13861.157     -15872.674     -15866.876     -9843.9204     -4.2835346     -13.738076      16.907475      8.6943358      7.5294109      29.94043       1959.9972    
       114   0             -241.87585     -13217.074     -15417.878     -15413.375     -8819.9684     -3.2269497     -13.658115      17.653388      8.6943358      7.5294109      29.94043       1959.9972    
       115   0             -241.89105     -12559.536     -14949.789     -14947.132     -7781.6856     -2.1141134     -13.357152      17.8297        8.6943358      7.5294109      29.94043       1959.9972    
       116   0             -241.90303     -11889.382     -14468.995     -14468.778     -6730.3719     -1.0394976     -12.684931      17.474372      8.6943358      7.5294109      29.94043       1959.9972    
       117   0             -241.9117      -11208.679     -13977.009     -13979.884     -5669.1451     -0.12412973    -11.397013      16.621008      8.6943358      7.5294109      29.94043       1959.9972    
       118   0             -241.91698     -10525.13      -13479.554     -13486.274     -4609.5623      0.42457436    -9.008431       15.266838      8.6943358      7.5294109      29.94043       1959.9972    
       119   0             -241.91894     -9877.5563     -13005.547     -13017.069     -3610.0529      0.029666874   -4.1693475      13.195374      8.6943358      7.5294109      29.94043       1959.9972    
       120   0             -241.91954     -9922.6355     -13038.956     -13052.344     -3676.6057     -1.8177468      0.61077955     11.201395      8.6943358      7.5294109      29.94043       1959.9972    
       121   0             -241.91991     -9908.9607     -13027.038     -13042.898     -3656.946      -1.2613843     -0.78903872     8.4974218      8.6943358      7.5294109      29.94043       1959.9972    
       122   0             -241.92009     -9883.329      -13003.543     -13019.522     -3626.9218     -3.0804603      4.8249789      6.945014       8.6943358      7.5294109      29.94043       1959.9972    
       123   0             -241.92058     -9992.14       -13088.896     -13106.011     -3781.5125     -4.4581675      10.846668      5.0997371      8.6943358      7.5294109      29.94043       1959.9972    
       124   0             -241.92085     -9954.9383     -13057.472     -13078.137     -3729.2057     -1.828544       3.2522919      4.0075708      8.6943358      7.5294109      29.94043       1959.9972    
       125   0             -241.92098     -9930.4865     -13035.124     -13062.372     -3693.9631     -1.2261949     -0.47761062    -1.2087568      8.6943358      7.5294109      29.94043       1959.9972    
       126   0             -241.92107     -9897.7952     -13007.642     -13034.572     -3651.1707     -3.0856021      4.196133      -3.3505416      8.6943358      7.5294109      29.94043       1959.9972    
       127   0             -241.92111     -9889.818      -13001.708     -13025.305     -3642.442      -3.1891388      5.4082004     -0.29562399     8.6943358      7.5294109      29.94043       1959.9972    
       128   0             -241.92116     -9928.2235     -13032.53      -13055.622     -3696.5182     -2.2384978      3.2916387      1.9502923      8.6943358      7.5294109      29.94043       1959.9972    
       129   0             -241.92119     -9937.5856     -13036.358     -13062.462     -3713.937      -1.9329508      2.2022285     -0.70425344     8.6943358      7.5294109      29.94043       1959.9972    
       130   0             -241.92121     -9947.4456     -13043.149     -13069.879     -3729.309      -2.0918887      2.6085902     -1.5719943      8.6943358      7.5294109      29.94043       1959.9972    
       131   0             -241.92122     -9929.569      -13029.886     -13055.271     -3703.5494     -2.262329       2.9951644      0.15108259     8.6943358      7.5294109      29.94043       1959.9972    
       132   0             -241.92122     -9922.3292     -13024.193     -13049.98      -3692.8139     -2.3489801      2.9312121     -0.17774992     8.6943358      7.5294109      29.94043       1959.9972    
       133   0             -241.92123     -9920.573      -13021.885     -13048.598     -3691.2356     -2.518161       3.1614485     -1.3309745      8.6943358      7.5294109      29.94043       1959.9972    
       134   0             -241.92123     -9923.0068     -13023.587     -13049.913     -3695.5199     -2.7737637      3.7292989     -0.82528452     8.6943358      7.5294109      29.94043       1959.9972    
       135   0             -241.92123     -9934.8844     -13033.212     -13059.158     -3712.2831     -2.6983818      3.6303791     -0.14195882     8.6943358      7.5294109      29.94043       1959.9972    
       136   0             -241.92124     -9933.8127     -13031.797     -13058.402     -3711.2388     -2.1302906      2.5626767     -1.0982408      8.6943358      7.5294109      29.94043       1959.9972    
       137   0             -241.92124     -9932.5127     -13030.31      -13057.498     -3709.7304     -2.1009379      2.6052044     -1.7768883      8.6943358      7.5294109      29.94043       1959.9972    
       138   0             -241.92124     -9927.4281     -13026.505     -13053.499     -3702.2801     -2.6705007      3.7368419     -1.4609853      8.6943358      7.5294109      29.94043       1959.9972    
       139   0             -241.92124     -9926.1227     -13025.569     -13052.512     -3700.2868     -2.693064       3.7080264     -1.3931503      8.6943358      7.5294109      29.94043       1959.9972    
       140   0             -241.92124     -9926.6824     -13025.856     -13053.01      -3701.1814     -2.4422222      3.1695609     -1.6483207      8.6943358      7.5294109      29.94043       1959.9972    
       141   0             -241.92124     -9927.3101     -13026.228     -13053.438     -3702.2635     -2.430401       3.18111       -1.7184115      8.6943358      7.5294109      29.94043       1959.9972    
       142   0             -241.92124     -9928.8678     -13027.559     -13054.588     -3704.456      -2.5797095      3.5436958     -1.541157       8.6943358      7.5294109      29.94043       1959.9972    
       143   0             -241.92124     -9928.1687     -13026.972     -13054         -3703.5341     -2.575962       3.5459304     -1.5431601      8.6943358      7.5294109      29.94043       1959.9972    
       144   0             -241.92124     -9927.812      -13026.593     -13053.823     -3703.0206     -2.4976126      3.3392012     -1.7356344      8.6943358      7.5294109      29.94043       1959.9972    
       145   0             -241.92124     -9926.9756     -13025.922     -13053.173     -3701.8309     -2.508837       3.3492037     -1.7627887      8.6943358      7.5294109      29.94043       1959.9972    
       146   0             -241.92124     -9926.8832     -13025.885     -13053.047     -3701.7173     -2.534991       3.4276237     -1.6844053      8.6943358      7.5294109      29.94043       1959.9972    
       147   0             -241.92124     -9927.2348     -13026.16      -13053.31      -3702.2342     -2.5379123      3.4525872     -1.6617887      8.6943358      7.5294109      29.94043       1959.9972    
       148   0             -241.92124     -9927.3675     -13026.222     -13053.439     -3702.4415     -2.5301383      3.4144589     -1.7332723      8.6943358      7.5294109      29.94043       1959.9972    
       149   0             -241.92124     -9927.5799     -13026.364     -13053.604     -3702.7721     -2.531697       3.4064829     -1.7560351      8.6943358      7.5294109      29.94043       1959.9972    
       150   0             -241.92124     -9927.3915     -13026.227     -13053.413     -3702.534      -2.5485103      3.4520516     -1.6951666      8.6943358      7.5294109      29.94043       1959.9972    
       151   0             -241.92124     -9927.4041     -13026.241     -13053.425     -3702.5464     -2.5520635      3.4602176     -1.6913437      8.6943358      7.5294109      29.94043       1959.9972    
       152   0             -241.92124     -9927.3861     -13026.205     -13053.433     -3702.5199     -2.5393163      3.4290735     -1.7419689      8.6943358      7.5294109      29.94043       1959.9972    
       153   0             -241.92124     -9927.3654     -13026.18      -13053.417     -3702.4997     -2.5371301      3.4256877     -1.7521533      8.6943358      7.5294109      29.94043       1959.9972    
       154   0             -241.92124     -9927.4201     -13026.235     -13053.45      -3702.5757     -2.5458393      3.4460902     -1.7243675      8.6943358      7.5294109      29.94043       1959.9972    
       155   0             -241.92124     -9927.3759     -13026.203     -13053.41      -3702.5146     -2.5452977      3.444536      -1.7184383      8.6943358      7.5294109      29.94043       1959.9972    
       156   0             -241.92124     -9927.4176     -13026.229     -13053.448     -3702.5757     -2.5412314      3.4372589     -1.7333701      8.6943358      7.5294109      29.94043       1959.9972    
       157   0             -241.92124     -9927.3745     -13026.185     -13053.414     -3702.5237     -2.546767       3.449764      -1.7437657      8.6943358      7.5294109      29.94043       1959.9972    
       158   0             -241.92124     -9927.3912     -13026.2       -13053.426     -3702.5474     -2.5500594      3.4547353     -1.7384841      8.6943358      7.5294109      29.94043       1959.9972    
       159   0             -241.92124     -9927.387      -13026.2       -13053.419     -3702.5413     -2.5468148      3.4471775     -1.7307046      8.6943358      7.5294109      29.94043       1959.9972    
       160   0             -241.92124     -9927.3826     -13026.195     -13053.417     -3702.5352     -2.5462114      3.4473906     -1.7354239      8.6943358      7.5294109      29.94043       1959.9972    
       161   0             -241.92124     -9927.3885     -13026.198     -13053.424     -3702.5432     -2.5477257      3.4513917     -1.7396662      8.6943358      7.5294109      29.94043       1959.9972    
       162   0             -241.92124     -9927.3763     -13026.19      -13053.412     -3702.5271     -2.5473164      3.4494929     -1.7352881      8.6943358      7.5294109      29.94043       1959.9972    
       163   0             -241.92124     -9927.3817     -13026.195     -13053.416     -3702.5349     -2.5465789      3.4471051     -1.7336182      8.6943358      7.5294109      29.94043       1959.9972    
       164   0             -241.92124     -9927.3783     -13026.19      -13053.415     -3702.5303     -2.5475473      3.4495625     -1.7387321      8.6943358      7.5294109      29.94043       1959.9972    
       165   0             -241.92124     -9927.3825     -13026.193     -13053.418     -3702.5365     -2.5483168      3.4515257     -1.7399176      8.6943358      7.5294109      29.94043       1959.9972    
       166   0             -241.92124     -9927.3859     -13026.197     -13053.419     -3702.5417     -2.5480104      3.450842      -1.736512       8.6943358      7.5294109      29.94043       1959.9972    
       167   0             -241.92124     -9927.3834     -13026.195     -13053.417     -3702.5382     -2.5475081      3.4495625     -1.7361846      8.6943358      7.5294109      29.94043       1959.9972    
       168   0             -241.92124     -9927.3843     -13026.195     -13053.419     -3702.5392     -2.5475577      3.4496468     -1.7381099      8.6943358      7.5294109      29.94043       1959.9972    
       169   0             -241.92124     -9927.3786     -13026.189     -13053.415     -3702.5315     -2.5480679      3.4508883     -1.739171       8.6943358      7.5294109      29.94043       1959.9972    
       170   0             -241.92124     -9927.3802     -13026.191     -13053.416     -3702.5337     -2.5481218      3.4509888     -1.7381812      8.6943358      7.5294109      29.94043       1959.9972    
       171   0             -241.92124     -9927.3807     -13026.192     -13053.416     -3702.5347     -2.5478531      3.4503625     -1.7372245      8.6943358      7.5294109      29.94043       1959.9972    
       172   0             -241.92124     -9927.3825     -13026.193     -13053.417     -3702.5374     -2.54789        3.4504645     -1.7375927      8.6943358      7.5294109      29.94043       1959.9972    
       173   0             -241.92124     -9927.3834     -13026.194     -13053.418     -3702.5388     -2.5481118      3.4509717     -1.738197       8.6943358      7.5294109      29.94043       1959.9972    
       174   0             -241.92124     -9927.3826     -13026.193     -13053.417     -3702.5376     -2.5481051      3.4509451     -1.7379343      8.6943358      7.5294109      29.94043       1959.9972    
       175   0             -241.92124     -9927.3821     -13026.193     -13053.417     -3702.5369     -2.5480238      3.4507626     -1.7375629      8.6943358      7.5294109      29.94043       1959.9972    
       176   0             -241.92124     -9927.3811     -13026.192     -13053.416     -3702.5355     -2.548075       3.4508701     -1.7378646      8.6943358      7.5294109      29.94043       1959.9972    
       177   0             -241.92124     -9927.3815     -13026.192     -13053.416     -3702.5361     -2.5481127      3.4509437     -1.7380834      8.6943358      7.5294109      29.94043       1959.9972    
       178   0             -241.92124     -9927.3819     -13026.192     -13053.417     -3702.5368     -2.5480662      3.4508462     -1.7378974      8.6943358      7.5294109      29.94043       1959.9972    
       179   0             -241.92124     -9927.3824     -13026.193     -13053.417     -3702.5375     -2.5480513      3.4508257     -1.7377912      8.6943358      7.5294109      29.94043       1959.9972    
       180   0             -241.92124     -9927.3825     -13026.193     -13053.417     -3702.5376     -2.5480868      3.4509106     -1.7379089      8.6943358      7.5294109      29.94043       1959.9972    
       181   0             -241.92124     -9927.382      -13026.192     -13053.417     -3702.5369     -2.5481089      3.4509447     -1.7380044      8.6943358      7.5294109      29.94043       1959.9972    
       182   0             -241.92124     -9927.3818     -13026.192     -13053.417     -3702.5366     -2.5481076      3.4509285     -1.7379705      8.6943358      7.5294109      29.94043       1959.9972    
       183   0             -241.92124     -9927.3817     -13026.192     -13053.416     -3702.5365     -2.5480983      3.4509146     -1.7379073      8.6943358      7.5294109      29.94043       1959.9972    
       184   0             -241.92124     -9927.3819     -13026.192     -13053.417     -3702.5367     -2.5480973      3.4509198     -1.7379115      8.6943358      7.5294109      29.94043       1959.9972    
       185   0             -241.92124     -9927.382      -13026.192     -13053.417     -3702.5369     -2.5481018      3.4509311     -1.7379561      8.6943358      7.5294109      29.94043       1959.9972    
       186   0             -241.92124     -9927.382      -13026.192     -13053.417     -3702.5369     -2.5480996      3.450923      -1.7379457      8.6943358      7.5294109      29.94043       1959.9972    
       187   0             -241.92124     -9927.382      -13026.192     -13053.417     -3702.5369     -2.5480956      3.4509121     -1.7379181      8.6943358      7.5294109      29.94043       1959.9972    
       188   0             -241.92124     -9927.3819     -13026.192     -13053.417     -3702.5367     -2.5481027      3.4509287     -1.7379359      8.6943358      7.5294109      29.94043       1959.9972    
       189   0             -241.92124     -9927.3819     -13026.192     -13053.417     -3702.5368     -2.5481079      3.4509397     -1.737951       8.6943358      7.5294109      29.94043       1959.9972    
       190   0             -241.92124     -9927.3819     -13026.192     -13053.417     -3702.5368     -2.5481054      3.4509338     -1.7379443      8.6943358      7.5294109      29.94043       1959.9972    
       191   0             -241.92124     -9927.3819     -13026.192     -13053.417     -3702.5368     -2.5481034      3.4509298     -1.7379407      8.6943358      7.5294109      29.94043       1959.9972    
       192   0             -241.92124     -9927.382      -13026.192     -13053.417     -3702.5368     -2.5481049      3.4509333     -1.7379456      8.6943358      7.5294109      29.94043       1959.9972    
       193   0             -241.92124     -9927.3819     -13026.192     -13053.417     -3702.5368     -2.5481054      3.4509347     -1.7379462      8.6943358      7.5294109      29.94043       1959.9972    
       194   0             -241.92124     -9927.3819     -13026.192     -13053.417     -3702.5368     -2.5481048      3.4509339     -1.7379433      8.6943358      7.5294109      29.94043       1959.9972    
       195   0             -241.92124     -9927.3819     -13026.192     -13053.417     -3702.5368     -2.548105       3.4509336     -1.7379434      8.6943358      7.5294109      29.94043       1959.9972    
       196   0             -241.92124     -9927.3819     -13026.192     -13053.417     -3702.5368     -2.5481054      3.450934      -1.7379457      8.6943358      7.5294109      29.94043       1959.9972    
       197   0             -241.92124     -9927.3819     -13026.192     -13053.417     -3702.5368     -2.5481055      3.4509347     -1.737947       8.6943358      7.5294109      29.94043       1959.9972    
       198   0             -241.92124     -9927.3819     -13026.192     -13053.417     -3702.5368     -2.5481055      3.450935      -1.7379452      8.6943358      7.5294109      29.94043       1959.9972    
       199   0             -241.92124     -9927.3819     -13026.192     -13053.417     -3702.5368     -2.5481055      3.4509349     -1.7379436      8.6943358      7.5294109      29.94043       1959.9972    
       200   0             -241.92124     -9927.3819     -13026.192     -13053.417     -3702.5368     -2.5481054      3.4509345     -1.7379449      8.6943358      7.5294109      29.94043       1959.9972    
Loop time of 0.0370686 on 48 procs for 100 steps with 60 atoms

99.5% CPU use with 48 MPI tasks x no OpenMP threads

Minimization stats:
  Stopping criterion = max iterations
  Energy initial, next-to-last, final = 
     -241.177566563985  -241.921237856742  -241.921237856742
  Force two-norm initial, final = 2.143827 3.623041e-09
  Force max component initial, final = 0.41425939 7.5906759e-10
  Final line search alpha, max atom move = 1 7.5906759e-10
  Iterations, force evaluations = 100 178

MPI task timing breakdown:
Section |  min time  |  avg time  |  max time  |%varavg| %total
---------------------------------------------------------------
Pair    | 1.9695e-05 | 0.0091593  | 0.022338   |   6.1 | 24.71
Neigh   | 0          | 0          | 0          |   0.0 |  0.00
Comm    | 0.0061095  | 0.01854    | 0.028405   |   4.1 | 50.02
Output  | 0.0037365  | 0.0038225  | 0.0042703  |   0.1 | 10.31
Modify  | 0          | 0          | 0          |   0.0 |  0.00
Other   |            | 0.005546   |            |       | 14.96

Nlocal:           1.25 ave           3 max           0 min
Histogram: 8 0 0 23 0 0 14 0 0 3
Nghost:         180.75 ave         183 max         177 min
Histogram: 2 7 0 5 0 3 7 0 18 6
Neighs:              0 ave           0 max           0 min
Histogram: 48 0 0 0 0 0 0 0 0 0
FullNghs:           52 ave         126 max           0 min
Histogram: 8 0 0 23 0 0 14 0 0 3

Total # of neighbors = 2496
Ave neighs/atom = 41.6
Neighbor list builds = 0
Dangerous builds = 0

# Obtain new stress tensor

variable tmp equal pe
variable e1 equal ${tmp}
variable e1 equal -241.921237856742
variable tmp equal press
variable p1 equal ${tmp}
variable p1 equal -9927.3819289301
variable tmp equal pxx
variable pxx1 equal ${tmp}
variable pxx1 equal -13026.1923990851
variable tmp equal pyy
variable pyy1 equal ${tmp}
variable pyy1 equal -13053.4165720254
variable tmp equal pzz
variable pzz1 equal ${tmp}
variable pzz1 equal -3702.53681567977
variable tmp equal pxy
variable pxy1 equal ${tmp}
variable pxy1 equal -2.54810543716486
variable tmp equal pxz
variable pxz1 equal ${tmp}
variable pxz1 equal 3.45093451319239
variable tmp equal pyz
variable pyz1 equal ${tmp}
variable pyz1 equal -1.73794490721825

# Compute elastic constant from pressure tensor

variable C1pos equal ${d1}
variable C1pos equal -644316.11860159
variable C2pos equal ${d2}
variable C2pos equal -644272.89994814
variable C3pos equal ${d3}
variable C3pos equal -1574802.02798547
variable C4pos equal ${d4}
variable C4pos equal 565.516292507244
variable C5pos equal ${d5}
variable C5pos equal -1251.13247129458
variable C6pos equal ${d6}
variable C6pos equal -373.984973763909

# Combine positive and negative

variable C1${dir} equal 0.5*(${C1neg}+${C1pos})
variable C12 equal 0.5*(${C1neg}+${C1pos})
variable C12 equal 0.5*(644344.28427572+${C1pos})
variable C12 equal 0.5*(644344.28427572+-644316.11860159)
variable C2${dir} equal 0.5*(${C2neg}+${C2pos})
variable C22 equal 0.5*(${C2neg}+${C2pos})
variable C22 equal 0.5*(644408.58343464+${C2pos})
variable C22 equal 0.5*(644408.58343464+-644272.89994814)
variable C3${dir} equal 0.5*(${C3neg}+${C3pos})
variable C32 equal 0.5*(${C3neg}+${C3pos})
variable C32 equal 0.5*(1574831.08222+${C3pos})
variable C32 equal 0.5*(1574831.08222+-1574802.02798547)
variable C4${dir} equal 0.5*(${C4neg}+${C4pos})
variable C42 equal 0.5*(${C4neg}+${C4pos})
variable C42 equal 0.5*(-543.286655217367+${C4pos})
variable C42 equal 0.5*(-543.286655217367+565.516292507244)
variable C5${dir} equal 0.5*(${C5neg}+${C5pos})
variable C52 equal 0.5*(${C5neg}+${C5pos})
variable C52 equal 0.5*(1251.19782600529+${C5pos})
variable C52 equal 0.5*(1251.19782600529+-1251.13247129458)
variable C6${dir} equal 0.5*(${C6neg}+${C6pos})
variable C62 equal 0.5*(${C6neg}+${C6pos})
variable C62 equal 0.5*(373.980719081041+${C6pos})
variable C62 equal 0.5*(373.980719081041+-373.984973763909)

# Delete dir to make sure it is not reused

variable dir delete

# uzz Perturbation

variable dir equal 3
include displace.mod
# NOTE: This script should not need to be
# modified. See in.elastic for more info.
#
# Find which reference length to use

if "${dir} == 1" then    "variable len0 equal ${lx0}"
if "${dir} == 2" then    "variable len0 equal ${ly0}"
if "${dir} == 3" then    "variable len0 equal ${lz0}"
variable len0 equal ${lz0}
variable len0 equal 29.9404304688083
if "${dir} == 4" then    "variable len0 equal ${lz0}"
if "${dir} == 5" then    "variable len0 equal ${lz0}"
if "${dir} == 6" then    "variable len0 equal ${ly0}"

# Reset box and simulation parameters

clear
box tilt large
read_restart restart.equil
Reading restart file ...
  restart file = 24 Mar 2022, LAMMPS = 24 Mar 2022
  restoring atom style atomic from restart
  triclinic box = (0.042726577 0.037058295 0.15121177) to (8.7370624 7.5664617 30.091642) with tilt (-4.3471038 0 0)
  3 by 2 by 8 MPI processor grid
  pair style nep stores no restart info
  60 atoms
  read_restart CPU = 0.073 seconds
include potential.mod
# NOTE: This script can be modified for different pair styles
# See in.elastic for more info.

# Choose potential
#pair_style	sw
#pair_coeff * * Si.sw Si

# MTP potential
pair_style  nep
pair_coeff  * *  nep_y2026_m04_d08_h20_m24_s14_generation100000.txt  Bi Sb Te


# Setup neighbor style
neighbor 1.0 nsq
neigh_modify once no every 1 delay 0 check yes

# Setup minimization style
min_style	     cg
min_modify	     dmax ${dmax} line quadratic
min_modify	     dmax 0.01 line quadratic

# Setup output
thermo		1
thermo_style custom step temp pe press pxx pyy pzz pxy pxz pyz lx ly lz vol
thermo_modify norm no

# Negative deformation

variable delta equal -${up}*${len0}
variable delta equal -1e-06*${len0}
variable delta equal -1e-06*29.9404304688083
variable deltaxy equal -${up}*xy
variable deltaxy equal -1e-06*xy
variable deltaxz equal -${up}*xz
variable deltaxz equal -1e-06*xz
variable deltayz equal -${up}*yz
variable deltayz equal -1e-06*yz
if "${dir} == 1" then    "change_box all x delta 0 ${delta} xy delta ${deltaxy} xz delta ${deltaxz} remap units box"
if "${dir} == 2" then    "change_box all y delta 0 ${delta} yz delta ${deltayz} remap units box"
if "${dir} == 3" then    "change_box all z delta 0 ${delta} remap units box"
change_box all z delta 0 ${delta} remap units box
change_box all z delta 0 -2.99404304688083e-05 remap units box
Changing box ...
  triclinic box = (0.042726577 0.037058295 0.15121177) to (8.7370624 7.5664617 30.091612) with tilt (-4.3471038 0 0)
if "${dir} == 4" then    "change_box all yz delta ${delta} remap units box"
if "${dir} == 5" then    "change_box all xz delta ${delta} remap units box"
if "${dir} == 6" then    "change_box all xy delta ${delta} remap units box"

# Relax atoms positions

minimize ${etol} ${ftol} ${maxiter} ${maxeval}
minimize 0 ${ftol} ${maxiter} ${maxeval}
minimize 0 1e-18 ${maxiter} ${maxeval}
minimize 0 1e-18 100 ${maxeval}
minimize 0 1e-18 100 1000
Neighbor list info ...
  update every 1 steps, delay 0 steps, check yes
  max neighbors/atom: 2000, page size: 100000
  master list distance cutoff = 7
  ghost atom cutoff = 7
  1 neighbor lists, perpetual/occasional/extra = 1 0 0
  (1) pair nep, perpetual
      attributes: full, newton on
      pair build: full/nsq
      stencil: none
      bin: none
Per MPI rank memory allocation (min/avg/max) = 4.085 | 4.085 | 4.085 Mbytes
   Step          Temp          PotEng         Press           Pxx            Pyy            Pzz            Pxy            Pxz            Pyz             Lx             Ly             Lz           Volume    
       100   0             -241.17761     -19471.467     -19468.961     -19495.718     -19449.723     -6.3210062     -8.9937411      4.0001497      8.6943358      7.5294034      29.940401      1959.9933    
       101   0             -241.28214     -19387.441     -19468.6       -19488.064     -19205.659     -4.1525628     -10.881192     -2.1074168      8.6943358      7.5294034      29.940401      1959.9933    
       102   0             -241.37315     -19219.121     -19398.506     -19411.95      -18846.907     -3.125299      -12.191671     -5.566482       8.6943358      7.5294034      29.940401      1959.9933    
       103   0             -241.45125     -18969.691     -19265.373     -19273.911     -18369.787     -2.9740368     -13.011541     -6.771038       8.6943358      7.5294034      29.940401      1959.9933    
       104   0             -241.51873     -18645.783     -19077.097     -19081.619     -17778.632     -3.4011823     -13.463215     -6.2163328      8.6943358      7.5294034      29.940401      1959.9933    
       105   0             -241.57752     -18260.899     -18841.102     -18842.33      -17099.265     -4.1403514     -13.655836     -4.3567366      8.6943358      7.5294034      29.940401      1959.9933    
       106   0             -241.6291      -17823.839     -18563.8       -18562.336     -16345.381     -4.9662944     -13.686833     -1.6132383      8.6943358      7.5294034      29.940401      1959.9933    
       107   0             -241.67463     -17342.451     -18251.006     -18247.379     -15528.967     -5.7004744     -13.639101      1.6320103      8.6943358      7.5294034      29.940401      1959.9933    
       108   0             -241.71501     -16824.011     -17907.945     -17902.646     -14661.441     -6.2152275     -13.577609      5.0436124      8.6943358      7.5294034      29.940401      1959.9933    
       109   0             -241.7509      -16274.761     -17539.169     -17532.675     -13752.438     -6.4336823     -13.546004      8.3432211      8.6943358      7.5294034      29.940401      1959.9933    
       110   0             -241.7828      -15700.01      -17148.512     -17141.301     -12810.218     -6.3257731     -13.56392       11.316449      8.6943358      7.5294034      29.940401      1959.9933    
       111   0             -241.81106     -15104.031     -16739.04      -16731.597     -11841.456     -5.9010521     -13.625851      13.814582      8.6943358      7.5294034      29.940401      1959.9933    
       112   0             -241.83591     -14490.047     -16313.059     -16305.88      -10851.201     -5.1996725     -13.70167       15.749989      8.6943358      7.5294034      29.940401      1959.9933    
       113   0             -241.85749     -13860.302     -15872.166     -15865.762     -9842.9776     -4.2831431     -13.737945      17.086335      8.6943358      7.5294034      29.940401      1959.9933    
       114   0             -241.87588     -13216.224     -15417.37      -15412.266     -8819.0371     -3.2264779     -13.658         17.825706      8.6943358      7.5294034      29.940401      1959.9933    
       115   0             -241.89108     -12558.692     -14949.28      -14946.031     -7780.7665     -2.1135791     -13.357016      17.994794      8.6943358      7.5294034      29.940401      1959.9933    
       116   0             -241.90306     -11888.546     -14468.486     -14467.684     -6729.4666     -1.0389288     -12.684703      17.631216      8.6943358      7.5294034      29.940401      1959.9933    
       117   0             -241.91173     -11207.853     -13976.501     -13978.801     -5668.257      -0.12357747    -11.396562      16.768022      8.6943358      7.5294034      29.940401      1959.9933    
       118   0             -241.917       -10524.321     -13479.052     -13485.209     -4608.7028      0.42498648    -9.0074454      15.401433      8.6943358      7.5294034      29.940401      1959.9933    
       119   0             -241.91896     -9876.808      -13005.08      -13016.058     -3609.2865      0.029448494   -4.1667169      13.312425      8.6943358      7.5294034      29.940401      1959.9933    
       120   0             -241.91956     -9921.9337     -13038.518     -13051.371     -3675.9121     -1.8181392      0.61353169     11.309         8.6943358      7.5294034      29.940401      1959.9933    
       121   0             -241.91994     -9908.6776     -13026.911     -13042.229     -3656.8925     -1.2618727     -0.7879933      8.611113       8.6943358      7.5294034      29.940401      1959.9933    
       122   0             -241.92011     -9882.6944     -13003.149     -13018.585     -3626.3493     -3.0774605      4.8165789      7.0599498      8.6943358      7.5294034      29.940401      1959.9933    
       123   0             -241.9206      -9990.8676     -13088.025     -13104.601     -3779.9763     -4.4521578      10.831698      5.2125902      8.6943358      7.5294034      29.940401      1959.9933    
       124   0             -241.92087     -9953.9665     -13056.848     -13076.971     -3728.0805     -1.8255703      3.2479261      4.1238797      8.6943358      7.5294034      29.940401      1959.9933    
       125   0             -241.921       -9929.7488     -13034.663     -13061.368     -3693.2147     -1.2273285     -0.47559519    -1.0904414      8.6943358      7.5294034      29.940401      1959.9933    
       126   0             -241.92109     -9897.4119     -13007.444     -13033.826     -3650.9655     -3.0869249      4.1938037     -3.2296474      8.6943358      7.5294034      29.940401      1959.9933    
       127   0             -241.92113     -9889.4678     -13001.53      -13024.568     -3642.3049     -3.1879962      5.4021107     -0.16530973     8.6943358      7.5294034      29.940401      1959.9933    
       128   0             -241.92118     -9927.9122     -13032.389     -13054.923     -3696.4243     -2.2356299      3.2852567      2.0815222      8.6943358      7.5294034      29.940401      1959.9933    
       129   0             -241.92121     -9937.1643     -13036.135     -13061.694     -3713.6641     -1.9323722      2.2020599     -0.58605015     8.6943358      7.5294034      29.940401      1959.9933    
       130   0             -241.92123     -9946.9144     -13042.842     -13069.028     -3728.8737     -2.0917077      2.6090207     -1.4554512      8.6943358      7.5294034      29.940401      1959.9933    
       131   0             -241.92124     -9929.0162     -13029.564     -13054.404     -3703.0804     -2.2615544      2.9934117      0.27024482     8.6943358      7.5294034      29.940401      1959.9933    
       132   0             -241.92124     -9921.7687     -13023.862     -13049.106     -3692.3376     -2.3488329      2.9311289     -0.061820925    8.6943358      7.5294034      29.940401      1959.9933    
       133   0             -241.92125     -9920.081      -13021.604     -13047.778     -3690.8611     -2.5189187      3.1638643     -1.2205497      8.6943358      7.5294034      29.940401      1959.9933    
       134   0             -241.92125     -9922.5367     -13023.322     -13049.107     -3695.1818     -2.7736956      3.7294053     -0.71219455     8.6943358      7.5294034      29.940401      1959.9933    
       135   0             -241.92125     -9934.4474     -13032.974     -13058.374     -3711.994      -2.6971646      3.627257      -0.024314778    8.6943358      7.5294034      29.940401      1959.9933    
       136   0             -241.92126     -9933.3574     -13031.544     -13057.607     -3710.9217     -2.1299046      2.562092      -0.98297701     8.6943358      7.5294034      29.940401      1959.9933    
       137   0             -241.92126     -9932.0295     -13030.035     -13056.682     -3709.3716     -2.1004827      2.6050968     -1.6644395      8.6943358      7.5294034      29.940401      1959.9933    
       138   0             -241.92126     -9926.9268     -13026.218     -13052.67      -3701.8923     -2.6699142      3.7359811     -1.3459016      8.6943358      7.5294034      29.940401      1959.9933    
       139   0             -241.92126     -9925.6195     -13025.281     -13051.681     -3699.8963     -2.6924362      3.7068784     -1.2774273      8.6943358      7.5294034      29.940401      1959.9933    
       140   0             -241.92126     -9926.1903     -13025.575     -13052.187     -3700.8084     -2.441745       3.1689876     -1.5342247      8.6943358      7.5294034      29.940401      1959.9933    
       141   0             -241.92126     -9926.8326     -13025.958     -13052.627     -3701.9129     -2.4302551      3.1812875     -1.6046713      8.6943358      7.5294034      29.940401      1959.9933    
       142   0             -241.92126     -9928.3974     -13027.295     -13053.782     -3704.1161     -2.5792213      3.5428729     -1.426745       8.6943358      7.5294034      29.940401      1959.9933    
       143   0             -241.92126     -9927.697      -13026.707     -13053.192     -3703.1924     -2.5753704      3.5448551     -1.428315       8.6943358      7.5294034      29.940401      1959.9933    
       144   0             -241.92126     -9927.3316     -13026.32      -13053.008     -3702.6661     -2.4971135      3.3384128     -1.6214754      8.6943358      7.5294034      29.940401      1959.9933    
       145   0             -241.92126     -9926.4925     -13025.648     -13052.358     -3701.4718     -2.5084775      3.3488164     -1.6489058      8.6943358      7.5294034      29.940401      1959.9933    
       146   0             -241.92126     -9926.3981     -13025.61      -13052.229     -3701.3554     -2.5345237      3.4270522     -1.5702308      8.6943358      7.5294034      29.940401      1959.9933    
       147   0             -241.92126     -9926.7536     -13025.887     -13052.495     -3701.8781     -2.537294       3.4515806     -1.5475398      8.6943358      7.5294034      29.940401      1959.9933    
       148   0             -241.92126     -9926.8862     -13025.949     -13052.624     -3702.0854     -2.5296982      3.4138825     -1.6190346      8.6943358      7.5294034      29.940401      1959.9933    
       149   0             -241.92126     -9927.1004     -13026.092     -13052.79      -3702.4185     -2.5313861      3.4062175     -1.6420074      8.6943358      7.5294034      29.940401      1959.9933    
       150   0             -241.92126     -9926.9113     -13025.955     -13052.6       -3702.1796     -2.548089       3.4515324     -1.5810764      8.6943358      7.5294034      29.940401      1959.9933    
       151   0             -241.92126     -9926.9239     -13025.968     -13052.611     -3702.192      -2.5515755      3.4595255     -1.5771806      8.6943358      7.5294034      29.940401      1959.9933    
       152   0             -241.92126     -9926.9053     -13025.933     -13052.619     -3702.1645     -2.5388466      3.4284371     -1.6279341      8.6943358      7.5294034      29.940401      1959.9933    
       153   0             -241.92126     -9926.8842     -13025.907     -13052.602     -3702.1436     -2.5366914      3.425146      -1.6381033      8.6943358      7.5294034      29.940401      1959.9933    
       154   0             -241.92126     -9926.9388     -13025.962     -13052.635     -3702.2196     -2.5453758      3.4454788     -1.6102948      8.6943358      7.5294034      29.940401      1959.9933    
       155   0             -241.92126     -9926.8948     -13025.93      -13052.596     -3702.1587     -2.5448329      3.4439072     -1.6043131      8.6943358      7.5294034      29.940401      1959.9933    
       156   0             -241.92126     -9926.9368     -13025.957     -13052.633     -3702.2203     -2.5407923      3.4366786     -1.6192108      8.6943358      7.5294034      29.940401      1959.9933    
       157   0             -241.92126     -9926.8941     -13025.913     -13052.601     -3702.169      -2.5463582      3.4492587     -1.6296982      8.6943358      7.5294034      29.940401      1959.9933    
       158   0             -241.92126     -9926.9106     -13025.927     -13052.612     -3702.1924     -2.5496451      3.4542078     -1.6244292      8.6943358      7.5294034      29.940401      1959.9933    
       159   0             -241.92126     -9926.9063     -13025.928     -13052.605     -3702.1861     -2.5463505      3.4465399     -1.6165905      8.6943358      7.5294034      29.940401      1959.9933    
       160   0             -241.92126     -9926.9016     -13025.922     -13052.603     -3702.1795     -2.5457549      3.4467843     -1.6213099      8.6943358      7.5294034      29.940401      1959.9933    
       161   0             -241.92126     -9926.9075     -13025.926     -13052.609     -3702.1876     -2.5472874      3.4508338     -1.6255816      8.6943358      7.5294034      29.940401      1959.9933    
       162   0             -241.92126     -9926.8952     -13025.917     -13052.597     -3702.1714     -2.5468727      3.4489212     -1.6212223      8.6943358      7.5294034      29.940401      1959.9933    
       163   0             -241.92126     -9926.9008     -13025.922     -13052.601     -3702.1794     -2.5461231      3.4464977     -1.6195274      8.6943358      7.5294034      29.940401      1959.9933    
       164   0             -241.92126     -9926.8974     -13025.917     -13052.601     -3702.1748     -2.5471062      3.4489921     -1.6246586      8.6943358      7.5294034      29.940401      1959.9933    
       165   0             -241.92126     -9926.9016     -13025.92      -13052.604     -3702.1811     -2.5478855      3.4509799     -1.6258483      8.6943358      7.5294034      29.940401      1959.9933    
       166   0             -241.92126     -9926.905      -13025.924     -13052.605     -3702.1862     -2.5475709      3.4502757     -1.6224335      8.6943358      7.5294034      29.940401      1959.9933    
       167   0             -241.92126     -9926.9025     -13025.922     -13052.603     -3702.1827     -2.5470631      3.4489835     -1.622107       8.6943358      7.5294034      29.940401      1959.9933    
       168   0             -241.92126     -9926.9033     -13025.922     -13052.605     -3702.1837     -2.5471134      3.4490705     -1.6240274      8.6943358      7.5294034      29.940401      1959.9933    
       169   0             -241.92126     -9926.8976     -13025.917     -13052.6       -3702.176      -2.5476282      3.450323      -1.6250889      8.6943358      7.5294034      29.940401      1959.9933    
       170   0             -241.92126     -9926.8992     -13025.918     -13052.601     -3702.1782     -2.5476816      3.450422      -1.6241007      8.6943358      7.5294034      29.940401      1959.9933    
       171   0             -241.92126     -9926.8998     -13025.919     -13052.601     -3702.1792     -2.5474094      3.4497869     -1.6231422      8.6943358      7.5294034      29.940401      1959.9933    
       172   0             -241.92126     -9926.9016     -13025.92      -13052.603     -3702.182      -2.547447       3.4498906     -1.6235095      8.6943358      7.5294034      29.940401      1959.9933    
       173   0             -241.92126     -9926.9026     -13025.921     -13052.604     -3702.1833     -2.5476711      3.450403      -1.624114       8.6943358      7.5294034      29.940401      1959.9933    
       174   0             -241.92126     -9926.9017     -13025.92      -13052.603     -3702.1822     -2.5476643      3.4503764     -1.6238543      8.6943358      7.5294034      29.940401      1959.9933    
       175   0             -241.92126     -9926.9012     -13025.92      -13052.602     -3702.1814     -2.5475812      3.45019       -1.6234822      8.6943358      7.5294034      29.940401      1959.9933    
       176   0             -241.92126     -9926.9002     -13025.919     -13052.602     -3702.18       -2.547633       3.4502985     -1.6237834      8.6943358      7.5294034      29.940401      1959.9933    
       177   0             -241.92126     -9926.9006     -13025.919     -13052.602     -3702.1806     -2.5476716      3.4503742     -1.6240035      8.6943358      7.5294034      29.940401      1959.9933    
       178   0             -241.92126     -9926.901      -13025.92      -13052.602     -3702.1813     -2.5476248      3.4502763     -1.623817       8.6943358      7.5294034      29.940401      1959.9933    
       179   0             -241.92126     -9926.9015     -13025.92      -13052.603     -3702.182      -2.5476098      3.4502553     -1.6237109      8.6943358      7.5294034      29.940401      1959.9933    
       180   0             -241.92126     -9926.9016     -13025.92      -13052.603     -3702.1821     -2.5476455      3.4503405     -1.6238282      8.6943358      7.5294034      29.940401      1959.9933    
       181   0             -241.92126     -9926.9011     -13025.92      -13052.602     -3702.1814     -2.5476678      3.4503751     -1.6239235      8.6943358      7.5294034      29.940401      1959.9933    
       182   0             -241.92126     -9926.9009     -13025.919     -13052.602     -3702.1811     -2.5476664      3.4503588     -1.6238897      8.6943358      7.5294034      29.940401      1959.9933    
       183   0             -241.92126     -9926.9008     -13025.919     -13052.602     -3702.181      -2.5476568      3.4503443     -1.6238266      8.6943358      7.5294034      29.940401      1959.9933    
       184   0             -241.92126     -9926.901      -13025.92      -13052.602     -3702.1813     -2.5476557      3.4503494     -1.6238308      8.6943358      7.5294034      29.940401      1959.9933    
       185   0             -241.92126     -9926.9011     -13025.92      -13052.602     -3702.1814     -2.5476604      3.450361      -1.6238753      8.6943358      7.5294034      29.940401      1959.9933    
       186   0             -241.92126     -9926.9011     -13025.92      -13052.602     -3702.1814     -2.5476582      3.4503529     -1.6238651      8.6943358      7.5294034      29.940401      1959.9933    
       187   0             -241.92126     -9926.9011     -13025.92      -13052.602     -3702.1814     -2.5476541      3.4503418     -1.6238376      8.6943358      7.5294034      29.940401      1959.9933    
       188   0             -241.92126     -9926.901      -13025.919     -13052.602     -3702.1813     -2.5476613      3.4503585     -1.6238553      8.6943358      7.5294034      29.940401      1959.9933    
       189   0             -241.92126     -9926.901      -13025.919     -13052.602     -3702.1813     -2.5476666      3.4503697     -1.6238704      8.6943358      7.5294034      29.940401      1959.9933    
       190   0             -241.92126     -9926.901      -13025.92      -13052.602     -3702.1813     -2.5476641      3.4503638     -1.6238638      8.6943358      7.5294034      29.940401      1959.9933    
       191   0             -241.92126     -9926.901      -13025.92      -13052.602     -3702.1813     -2.547662       3.4503597     -1.6238602      8.6943358      7.5294034      29.940401      1959.9933    
       192   0             -241.92126     -9926.9011     -13025.92      -13052.602     -3702.1814     -2.5476635      3.4503632     -1.6238651      8.6943358      7.5294034      29.940401      1959.9933    
       193   0             -241.92126     -9926.901      -13025.92      -13052.602     -3702.1813     -2.547664       3.4503646     -1.6238656      8.6943358      7.5294034      29.940401      1959.9933    
       194   0             -241.92126     -9926.901      -13025.92      -13052.602     -3702.1813     -2.5476634      3.4503638     -1.6238627      8.6943358      7.5294034      29.940401      1959.9933    
       195   0             -241.92126     -9926.901      -13025.92      -13052.602     -3702.1813     -2.5476636      3.4503635     -1.6238629      8.6943358      7.5294034      29.940401      1959.9933    
       196   0             -241.92126     -9926.901      -13025.92      -13052.602     -3702.1813     -2.547664       3.4503639     -1.6238651      8.6943358      7.5294034      29.940401      1959.9933    
       197   0             -241.92126     -9926.901      -13025.92      -13052.602     -3702.1813     -2.5476641      3.4503646     -1.6238664      8.6943358      7.5294034      29.940401      1959.9933    
       198   0             -241.92126     -9926.901      -13025.92      -13052.602     -3702.1813     -2.5476641      3.450365      -1.6238646      8.6943358      7.5294034      29.940401      1959.9933    
       199   0             -241.92126     -9926.901      -13025.92      -13052.602     -3702.1813     -2.5476641      3.4503648     -1.623863       8.6943358      7.5294034      29.940401      1959.9933    
       200   0             -241.92126     -9926.901      -13025.92      -13052.602     -3702.1813     -2.547664       3.4503644     -1.6238643      8.6943358      7.5294034      29.940401      1959.9933    
Loop time of 0.0867372 on 48 procs for 100 steps with 60 atoms

98.4% CPU use with 48 MPI tasks x no OpenMP threads

Minimization stats:
  Stopping criterion = max iterations
  Energy initial, next-to-last, final = 
     -241.177614208707   -241.92125835413   -241.92125835413
  Force two-norm initial, final = 2.1438234 3.6457763e-09
  Force max component initial, final = 0.41424852 7.651203e-10
  Final line search alpha, max atom move = 1 7.651203e-10
  Iterations, force evaluations = 100 178

MPI task timing breakdown:
Section |  min time  |  avg time  |  max time  |%varavg| %total
---------------------------------------------------------------
Pair    | 2.0156e-05 | 0.0091822  | 0.022197   |   6.1 | 10.59
Neigh   | 0          | 0          | 0          |   0.0 |  0.00
Comm    | 0.0061144  | 0.018596   | 0.028212   |   4.1 | 21.44
Output  | 0.0038672  | 0.0050109  | 0.053869   |  10.1 |  5.78
Modify  | 0          | 0          | 0          |   0.0 |  0.00
Other   |            | 0.05395    |            |       | 62.20

Nlocal:           1.25 ave           3 max           0 min
Histogram: 8 0 0 23 0 0 14 0 0 3
Nghost:         180.75 ave         183 max         177 min
Histogram: 2 7 0 5 0 3 7 0 18 6
Neighs:              0 ave           0 max           0 min
Histogram: 48 0 0 0 0 0 0 0 0 0
FullNghs:           52 ave         126 max           0 min
Histogram: 8 0 0 23 0 0 14 0 0 3

Total # of neighbors = 2496
Ave neighs/atom = 41.6
Neighbor list builds = 0
Dangerous builds = 0

# Obtain new stress tensor

variable tmp equal pxx
variable pxx1 equal ${tmp}
variable pxx1 equal -13025.9195235276
variable tmp equal pyy
variable pyy1 equal ${tmp}
variable pyy1 equal -13052.6022352088
variable tmp equal pzz
variable pzz1 equal ${tmp}
variable pzz1 equal -3702.18132851189
variable tmp equal pxy
variable pxy1 equal ${tmp}
variable pxy1 equal -2.54766402768687
variable tmp equal pxz
variable pxz1 equal ${tmp}
variable pxz1 equal 3.45036439962818
variable tmp equal pyz
variable pyz1 equal ${tmp}
variable pyz1 equal -1.62386433928139

# Compute elastic constant from pressure tensor

variable C1neg equal ${d1}
variable C1neg equal 644343.40615734
variable C2neg equal ${d2}
variable C2neg equal 644354.3336298
variable C3neg equal ${d3}
variable C3neg equal 1574837.57670226
variable C4neg equal ${d4}
variable C4neg equal -554.108235713558
variable C5neg equal ${d5}
variable C5neg equal 1251.07545993816
variable C6neg equal ${d6}
variable C6neg equal 374.029114711708

# Reset box and simulation parameters

clear
box tilt large
read_restart restart.equil
Reading restart file ...
  restart file = 24 Mar 2022, LAMMPS = 24 Mar 2022
  restoring atom style atomic from restart
  triclinic box = (0.042726577 0.037058295 0.15121177) to (8.7370624 7.5664617 30.091642) with tilt (-4.3471038 0 0)
  3 by 2 by 8 MPI processor grid
  pair style nep stores no restart info
  60 atoms
  read_restart CPU = 0.002 seconds
include potential.mod
# NOTE: This script can be modified for different pair styles
# See in.elastic for more info.

# Choose potential
#pair_style	sw
#pair_coeff * * Si.sw Si

# MTP potential
pair_style  nep
pair_coeff  * *  nep_y2026_m04_d08_h20_m24_s14_generation100000.txt  Bi Sb Te


# Setup neighbor style
neighbor 1.0 nsq
neigh_modify once no every 1 delay 0 check yes

# Setup minimization style
min_style	     cg
min_modify	     dmax ${dmax} line quadratic
min_modify	     dmax 0.01 line quadratic

# Setup output
thermo		1
thermo_style custom step temp pe press pxx pyy pzz pxy pxz pyz lx ly lz vol
thermo_modify norm no

# Positive deformation

variable delta equal ${up}*${len0}
variable delta equal 1e-06*${len0}
variable delta equal 1e-06*29.9404304688083
variable deltaxy equal ${up}*xy
variable deltaxy equal 1e-06*xy
variable deltaxz equal ${up}*xz
variable deltaxz equal 1e-06*xz
variable deltayz equal ${up}*yz
variable deltayz equal 1e-06*yz
if "${dir} == 1" then    "change_box all x delta 0 ${delta} xy delta ${deltaxy} xz delta ${deltaxz} remap units box"
if "${dir} == 2" then    "change_box all y delta 0 ${delta} yz delta ${deltayz} remap units box"
if "${dir} == 3" then    "change_box all z delta 0 ${delta} remap units box"
change_box all z delta 0 ${delta} remap units box
change_box all z delta 0 2.99404304688083e-05 remap units box
Changing box ...
  triclinic box = (0.042726577 0.037058295 0.15121177) to (8.7370624 7.5664617 30.091672) with tilt (-4.3471038 0 0)
if "${dir} == 4" then    "change_box all yz delta ${delta} remap units box"
if "${dir} == 5" then    "change_box all xz delta ${delta} remap units box"
if "${dir} == 6" then    "change_box all xy delta ${delta} remap units box"

# Relax atoms positions

minimize ${etol} ${ftol} ${maxiter} ${maxeval}
minimize 0 ${ftol} ${maxiter} ${maxeval}
minimize 0 1e-18 ${maxiter} ${maxeval}
minimize 0 1e-18 100 ${maxeval}
minimize 0 1e-18 100 1000
Neighbor list info ...
  update every 1 steps, delay 0 steps, check yes
  max neighbors/atom: 2000, page size: 100000
  master list distance cutoff = 7
  ghost atom cutoff = 7
  1 neighbor lists, perpetual/occasional/extra = 1 0 0
  (1) pair nep, perpetual
      attributes: full, newton on
      pair build: full/nsq
      stencil: none
      bin: none
Per MPI rank memory allocation (min/avg/max) = 4.085 | 4.085 | 4.085 Mbytes
   Step          Temp          PotEng         Press           Pxx            Pyy            Pzz            Pxy            Pxz            Pyz             Lx             Ly             Lz           Volume    
       100   0             -241.17757     -19472.521     -19469.748     -19496.506     -19451.307     -6.3210445     -8.9942634      4.0004788      8.6943358      7.5294034      29.94046       1959.9972    
       101   0             -241.28209     -19388.448     -19469.349     -19488.815     -19207.18      -4.152712      -10.881673     -2.106677       8.6943358      7.5294034      29.94046       1959.9972    
       102   0             -241.3731      -19220.092     -19399.226     -19412.671     -18848.378     -3.1254579     -12.192153     -5.5655925      8.6943358      7.5294034      29.94046       1959.9972    
       103   0             -241.4512      -18970.625     -19266.073     -19274.612     -18371.189     -2.974144      -13.012053     -6.7701835      8.6943358      7.5294034      29.94046       1959.9972    
       104   0             -241.51868     -18646.695     -19077.782     -19082.307     -17779.997     -3.401216      -13.463763     -6.2156017      8.6943358      7.5294034      29.94046       1959.9972    
       105   0             -241.57747     -18261.799     -18841.778     -18843.008     -17100.61      -4.14032       -13.656417     -4.3561734      8.6943358      7.5294034      29.94046       1959.9972    
       106   0             -241.62906     -17824.729     -18564.471     -18563.009     -16346.706     -4.9662252     -13.687433     -1.6128405      8.6943358      7.5294034      29.94046       1959.9972    
       107   0             -241.67459     -17343.334     -18251.673     -18248.048     -15530.28      -5.7004065     -13.639697      1.6322691      8.6943358      7.5294034      29.94046       1959.9972    
       108   0             -241.71497     -16824.888     -17908.609     -17903.311     -14662.744     -6.2152029     -13.578175      5.0437771      8.6943358      7.5294034      29.94046       1959.9972    
       109   0             -241.75087     -16275.633     -17539.83      -17533.338     -13753.73      -6.4337396     -13.546513      8.3433402      8.6943358      7.5294034      29.94046       1959.9972    
       110   0             -241.78277     -15700.876     -17149.17      -17141.961     -12811.497     -6.3259426     -13.564351      11.316564      8.6943358      7.5294034      29.94046       1959.9972    
       111   0             -241.81103     -15104.89      -16739.695     -16732.254     -11842.722     -5.9013528     -13.62619       13.81472       8.6943358      7.5294034      29.94046       1959.9972    
       112   0             -241.83588     -14490.898     -16313.71      -16306.533     -10852.452     -5.2001118     -13.701913      15.750157      8.6943358      7.5294034      29.94046       1959.9972    
       113   0             -241.85747     -13861.145     -15872.812     -15866.41      -9844.213      -4.283717      -13.7381        17.086516      8.6943358      7.5294034      29.94046       1959.9972    
       114   0             -241.87585     -13217.058     -15418.011     -15412.908     -8820.2552     -3.2271723     -13.658089      17.825864      8.6943358      7.5294034      29.94046       1959.9972    
       115   0             -241.89106     -12559.516     -14949.915     -14946.666     -7781.9662     -2.1143704     -13.357082      17.994872      8.6943358      7.5294034      29.94046       1959.9972    
       116   0             -241.90304     -11889.357     -14469.113     -14468.312     -6730.6458     -1.0397802     -12.684826      17.631139      8.6943358      7.5294034      29.94046       1959.9972    
       117   0             -241.91171     -11208.649     -13977.117     -13979.419     -5669.411      -0.12442272    -11.396901      16.767697      8.6943358      7.5294034      29.94046       1959.9972    
       118   0             -241.91699     -10525.091     -13479.65      -13485.809     -4609.816       0.42430711    -9.0083904      15.400758      8.6943358      7.5294034      29.94046       1959.9972    
       119   0             -241.91895     -9877.4937     -13005.616     -13016.595     -3610.2705      0.029578141   -4.1697046      13.311444      8.6943358      7.5294034      29.94046       1959.9972    
       120   0             -241.91955     -9922.5559     -13039.008     -13051.863     -3676.7966     -1.8178564      0.61059033     11.308425      8.6943358      7.5294034      29.94046       1959.9972    
       121   0             -241.91993     -9908.7239     -13026.977     -13042.298     -3656.8965     -1.2614414     -0.78863309     8.6106478      8.6943358      7.5294034      29.94046       1959.9972    
       122   0             -241.9201      -9883.2237     -13003.579     -13019.025     -3627.0667     -3.0818288      4.8289323      7.0517729      8.6943358      7.5294034      29.94046       1959.9972    
       123   0             -241.92059     -9992.2744     -13089.107     -13105.697     -3782.0192     -4.4606949      10.853225      5.1976785      8.6943358      7.5294034      29.94046       1959.9972    
       124   0             -241.92086     -9954.9605     -13057.593     -13077.729     -3729.5588     -1.8299192      3.2548952      4.1109761      8.6943358      7.5294034      29.94046       1959.9972    
       125   0             -241.92099     -9930.4198     -13035.186     -13061.9       -3694.1736     -1.2260342     -0.4774009     -1.0991961      8.6943358      7.5294034      29.94046       1959.9972    
       126   0             -241.92108     -9897.5969     -13007.608     -13034.004     -3651.1792     -3.0854009      4.1980139     -3.2425186      8.6943358      7.5294034      29.94046       1959.9972    
       127   0             -241.92112     -9889.6064     -13001.664     -13024.732     -3642.4235     -3.1898679      5.4114681     -0.19142449     8.6943358      7.5294034      29.94046       1959.9972    
       128   0             -241.92117     -9927.9972     -13032.474     -13055.035     -3696.4833     -2.2398706      3.295013       2.0562109      8.6943358      7.5294034      29.94046       1959.9972    
       129   0             -241.9212      -9937.4009     -13036.333     -13061.899     -3713.9707     -1.9334313      2.2032136     -0.59270123     8.6943358      7.5294034      29.94046       1959.9972    
       130   0             -241.92122     -9947.3018     -13043.154     -13069.348     -3729.4031     -2.0922304      2.6093931     -1.46174        8.6943358      7.5294034      29.94046       1959.9972    
       131   0             -241.92123     -9929.4338     -13029.896     -13054.749     -3703.657      -2.2629262      2.9968352      0.25733426     8.6943358      7.5294034      29.94046       1959.9972    
       132   0             -241.92124     -9922.1966     -13024.206     -13049.46      -3692.9239     -2.3493298      2.9322099     -0.070021461    8.6943358      7.5294034      29.94046       1959.9972    
       133   0             -241.92124     -9920.4155     -13021.881     -13048.058     -3691.3084     -2.5181618      3.1614751     -1.2198565      8.6943358      7.5294034      29.94046       1959.9972    
       134   0             -241.92124     -9922.8401     -13023.576     -13049.367     -3695.5777     -2.7740865      3.7302277     -0.71582067     8.6943358      7.5294034      29.94046       1959.9972    
       135   0             -241.92124     -9934.7053     -13033.19      -13058.603     -3712.3224     -2.6991905      3.6326404     -0.034984379    8.6943358      7.5294034      29.94046       1959.9972    
       136   0             -241.92125     -9933.6411     -13031.781     -13057.853     -3711.2895     -2.1307711      2.5639199     -0.9892552      8.6943358      7.5294034      29.94046       1959.9972    
       137   0             -241.92125     -9932.3514     -13030.303     -13056.955     -3709.7966     -2.1013793      2.6061315     -1.6664867      8.6943358      7.5294034      29.94046       1959.9972    
       138   0             -241.92125     -9927.2739     -13026.502     -13052.962     -3702.3575     -2.6710226      3.7381391     -1.3526156      8.6943358      7.5294034      29.94046       1959.9972    
       139   0             -241.92125     -9925.9689     -13025.566     -13051.975     -3700.3649     -2.6936186      3.7094682     -1.2854491      8.6943358      7.5294034      29.94046       1959.9972    
       140   0             -241.92125     -9926.5247     -13025.85      -13052.471     -3701.2531     -2.4427152      3.170769      -1.5399103      8.6943358      7.5294034      29.94046       1959.9972    
       141   0             -241.92125     -9927.1466     -13026.219     -13052.895     -3702.3266     -2.430779       3.1820557     -1.6098217      8.6943358      7.5294034      29.94046       1959.9972    
       142   0             -241.92125     -9928.7017     -13027.548     -13054.042     -3704.515      -2.5802181      3.5450271     -1.4330382      8.6943358      7.5294034      29.94046       1959.9972    
       143   0             -241.92125     -9928.0031     -13026.961     -13053.455     -3703.5938     -2.5765046      3.5473471     -1.4353171      8.6943358      7.5294034      29.94046       1959.9972    
       144   0             -241.92125     -9927.6497     -13026.584     -13053.28      -3703.0851     -2.4981149      3.3404985     -1.6273847      8.6943358      7.5294034      29.94046       1959.9972    
       145   0             -241.92125     -9926.8143     -13025.914     -13052.631     -3701.8973     -2.5092897      3.3503592     -1.6542989      8.6943358      7.5294034      29.94046       1959.9972    
       146   0             -241.92125     -9926.7226     -13025.878     -13052.505     -3701.7846     -2.5354854      3.4288513     -1.5761069      8.6943358      7.5294034      29.94046       1959.9972    
       147   0             -241.92125     -9927.0728     -13026.152     -13052.767     -3702.2994     -2.5384603      3.4539705     -1.5537137      8.6943358      7.5294034      29.94046       1959.9972    
       148   0             -241.92125     -9927.2055     -13026.213     -13052.897     -3702.5066     -2.530619       3.4156808     -1.6251644      8.6943358      7.5294034      29.94046       1959.9972    
       149   0             -241.92125     -9927.4173     -13026.355     -13053.061     -3702.8363     -2.5321319      3.4075931     -1.6477719      8.6943358      7.5294034      29.94046       1959.9972    
       150   0             -241.92125     -9927.2291     -13026.218     -13052.871     -3702.5986     -2.5489879      3.4532585     -1.5869662      8.6943358      7.5294034      29.94046       1959.9972    
       151   0             -241.92125     -9927.2417     -13026.232     -13052.882     -3702.611      -2.5525655      3.4614876     -1.5832036      8.6943358      7.5294034      29.94046       1959.9972    
       152   0             -241.92125     -9927.224      -13026.197     -13052.891     -3702.5848     -2.5398103      3.430321      -1.6337443      8.6943358      7.5294034      29.94046       1959.9972    
       153   0             -241.92125     -9927.2034     -13026.171     -13052.874     -3702.5648     -2.5376127      3.4268999     -1.6439064      8.6943358      7.5294034      29.94046       1959.9972    
       154   0             -241.92125     -9927.2581     -13026.226     -13052.907     -3702.6409     -2.5463308      3.4473276     -1.6161388      8.6943358      7.5294034      29.94046       1959.9972    
       155   0             -241.92125     -9927.2138     -13026.194     -13052.868     -3702.5797     -2.5457898      3.4457807     -1.6102498      8.6943358      7.5294034      29.94046       1959.9972    
       156   0             -241.92125     -9927.2555     -13026.221     -13052.905     -3702.6406     -2.5417144      3.438486      -1.6252028      8.6943358      7.5294034      29.94046       1959.9972    
       157   0             -241.92125     -9927.2122     -13026.176     -13052.872     -3702.5884     -2.5472388      3.4509633     -1.6355493      8.6943358      7.5294034      29.94046       1959.9972    
       158   0             -241.92125     -9927.229      -13026.191     -13052.883     -3702.6122     -2.5505334      3.4559431     -1.630264       8.6943358      7.5294034      29.94046       1959.9972    
       159   0             -241.92125     -9927.2248     -13026.191     -13052.877     -3702.6061     -2.5473073      3.4484264     -1.6225172      8.6943358      7.5294034      29.94046       1959.9972    
       160   0             -241.92125     -9927.2206     -13026.187     -13052.875     -3702.6002     -2.546701       3.4486277     -1.6272291      8.6943358      7.5294034      29.94046       1959.9972    
       161   0             -241.92125     -9927.2264     -13026.19      -13052.881     -3702.6082     -2.5482085      3.4526107     -1.6314511      8.6943358      7.5294034      29.94046       1959.9972    
       162   0             -241.92125     -9927.2142     -13026.181     -13052.869     -3702.5922     -2.5478013      3.4507177     -1.6270711      8.6943358      7.5294034      29.94046       1959.9972    
       163   0             -241.92125     -9927.2196     -13026.186     -13052.873     -3702.5998     -2.5470681      3.4483424     -1.6254149      8.6943358      7.5294034      29.94046       1959.9972    
       164   0             -241.92125     -9927.2162     -13026.181     -13052.872     -3702.5952     -2.548031       3.450786      -1.6305197      8.6943358      7.5294034      29.94046       1959.9972    
       165   0             -241.92125     -9927.2203     -13026.184     -13052.876     -3702.6014     -2.5487969      3.4527402     -1.6317019      8.6943358      7.5294034      29.94046       1959.9972    
       166   0             -241.92125     -9927.2237     -13026.188     -13052.877     -3702.6066     -2.5484936      3.4520642     -1.6283015      8.6943358      7.5294034      29.94046       1959.9972    
       167   0             -241.92125     -9927.2213     -13026.186     -13052.875     -3702.6032     -2.5479934      3.4507894     -1.6279754      8.6943358      7.5294034      29.94046       1959.9972    
       168   0             -241.92125     -9927.2222     -13026.186     -13052.877     -3702.6042     -2.5480427      3.4508728     -1.6299018      8.6943358      7.5294034      29.94046       1959.9972    
       169   0             -241.92125     -9927.2165     -13026.181     -13052.872     -3702.5965     -2.5485512      3.4521102     -1.6309606      8.6943358      7.5294034      29.94046       1959.9972    
       170   0             -241.92125     -9927.2181     -13026.182     -13052.873     -3702.5987     -2.5486052      3.4522111     -1.6299706      8.6943358      7.5294034      29.94046       1959.9972    
       171   0             -241.92125     -9927.2186     -13026.183     -13052.873     -3702.5997     -2.5483378      3.4515881     -1.6290161      8.6943358      7.5294034      29.94046       1959.9972    
       172   0             -241.92125     -9927.2204     -13026.184     -13052.874     -3702.6024     -2.5483744      3.4516894     -1.6293848      8.6943358      7.5294034      29.94046       1959.9972    
       173   0             -241.92125     -9927.2213     -13026.185     -13052.875     -3702.6038     -2.5485955      3.4521947     -1.6299885      8.6943358      7.5294034      29.94046       1959.9972    
       174   0             -241.92125     -9927.2205     -13026.184     -13052.875     -3702.6026     -2.5485889      3.4521683     -1.6297249      8.6943358      7.5294034      29.94046       1959.9972    
       175   0             -241.92125     -9927.22       -13026.184     -13052.874     -3702.6018     -2.5485081      3.4519871     -1.6293541      8.6943358      7.5294034      29.94046       1959.9972    
       176   0             -241.92125     -9927.219      -13026.183     -13052.873     -3702.6004     -2.5485592      3.4520942     -1.6296557      8.6943358      7.5294034      29.94046       1959.9972    
       177   0             -241.92125     -9927.2194     -13026.183     -13052.874     -3702.6011     -2.5485965      3.452167      -1.629874       8.6943358      7.5294034      29.94046       1959.9972    
       178   0             -241.92125     -9927.2198     -13026.184     -13052.874     -3702.6017     -2.5485501      3.4520698     -1.6296882      8.6943358      7.5294034      29.94046       1959.9972    
       179   0             -241.92125     -9927.2203     -13026.184     -13052.874     -3702.6024     -2.5485352      3.4520494     -1.629582       8.6943358      7.5294034      29.94046       1959.9972    
       180   0             -241.92125     -9927.2204     -13026.184     -13052.875     -3702.6025     -2.5485707      3.4521342     -1.6296999      8.6943358      7.5294034      29.94046       1959.9972    
       181   0             -241.92125     -9927.2199     -13026.184     -13052.874     -3702.6018     -2.5485927      3.4521681     -1.6297954      8.6943358      7.5294034      29.94046       1959.9972    
       182   0             -241.92125     -9927.2197     -13026.184     -13052.874     -3702.6016     -2.5485914      3.4521519     -1.6297614      8.6943358      7.5294034      29.94046       1959.9972    
       183   0             -241.92125     -9927.2196     -13026.183     -13052.874     -3702.6014     -2.5485823      3.4521383     -1.6296983      8.6943358      7.5294034      29.94046       1959.9972    
       184   0             -241.92125     -9927.2198     -13026.184     -13052.874     -3702.6017     -2.5485813      3.4521435     -1.6297025      8.6943358      7.5294034      29.94046       1959.9972    
       185   0             -241.92125     -9927.2199     -13026.184     -13052.874     -3702.6018     -2.5485857      3.4521547     -1.6297471      8.6943358      7.5294034      29.94046       1959.9972    
       186   0             -241.92125     -9927.2199     -13026.184     -13052.874     -3702.6019     -2.5485835      3.4521466     -1.6297367      8.6943358      7.5294034      29.94046       1959.9972    
       187   0             -241.92125     -9927.2199     -13026.184     -13052.874     -3702.6018     -2.5485795      3.4521359     -1.6297091      8.6943358      7.5294034      29.94046       1959.9972    
       188   0             -241.92125     -9927.2198     -13026.184     -13052.874     -3702.6017     -2.5485867      3.4521523     -1.6297269      8.6943358      7.5294034      29.94046       1959.9972    
       189   0             -241.92125     -9927.2198     -13026.184     -13052.874     -3702.6017     -2.5485919      3.4521633     -1.6297419      8.6943358      7.5294034      29.94046       1959.9972    
       190   0             -241.92125     -9927.2198     -13026.184     -13052.874     -3702.6017     -2.5485894      3.4521574     -1.6297353      8.6943358      7.5294034      29.94046       1959.9972    
       191   0             -241.92125     -9927.2198     -13026.184     -13052.874     -3702.6018     -2.5485874      3.4521534     -1.6297317      8.6943358      7.5294034      29.94046       1959.9972    
       192   0             -241.92125     -9927.2198     -13026.184     -13052.874     -3702.6018     -2.5485888      3.452157      -1.6297366      8.6943358      7.5294034      29.94046       1959.9972    
       193   0             -241.92125     -9927.2198     -13026.184     -13052.874     -3702.6018     -2.5485893      3.4521583     -1.6297372      8.6943358      7.5294034      29.94046       1959.9972    
       194   0             -241.92125     -9927.2198     -13026.184     -13052.874     -3702.6018     -2.5485888      3.4521575     -1.6297343      8.6943358      7.5294034      29.94046       1959.9972    
       195   0             -241.92125     -9927.2198     -13026.184     -13052.874     -3702.6017     -2.5485889      3.4521572     -1.6297344      8.6943358      7.5294034      29.94046       1959.9972    
       196   0             -241.92125     -9927.2198     -13026.184     -13052.874     -3702.6018     -2.5485893      3.4521576     -1.6297367      8.6943358      7.5294034      29.94046       1959.9972    
       197   0             -241.92125     -9927.2198     -13026.184     -13052.874     -3702.6018     -2.5485894      3.4521583     -1.6297379      8.6943358      7.5294034      29.94046       1959.9972    
       198   0             -241.92125     -9927.2198     -13026.184     -13052.874     -3702.6018     -2.5485894      3.4521587     -1.6297361      8.6943358      7.5294034      29.94046       1959.9972    
       199   0             -241.92125     -9927.2198     -13026.184     -13052.874     -3702.6018     -2.5485895      3.4521585     -1.6297345      8.6943358      7.5294034      29.94046       1959.9972    
       200   0             -241.92125     -9927.2198     -13026.184     -13052.874     -3702.6018     -2.5485894      3.4521581     -1.6297359      8.6943358      7.5294034      29.94046       1959.9972    
Loop time of 0.0374105 on 48 procs for 100 steps with 60 atoms

99.6% CPU use with 48 MPI tasks x no OpenMP threads

Minimization stats:
  Stopping criterion = max iterations
  Energy initial, next-to-last, final = 
     -241.177566619796  -241.921249295615  -241.921249295615
  Force two-norm initial, final = 2.1438319 3.61416e-09
  Force max component initial, final = 0.41426362 7.5700873e-10
  Final line search alpha, max atom move = 1 7.5700873e-10
  Iterations, force evaluations = 100 178

MPI task timing breakdown:
Section |  min time  |  avg time  |  max time  |%varavg| %total
---------------------------------------------------------------
Pair    | 2.0529e-05 | 0.0091822  | 0.02225    |   6.1 | 24.54
Neigh   | 0          | 0          | 0          |   0.0 |  0.00
Comm    | 0.0060853  | 0.018792   | 0.02834    |   4.1 | 50.23
Output  | 0.0037944  | 0.0038986  | 0.0043908  |   0.1 | 10.42
Modify  | 0          | 0          | 0          |   0.0 |  0.00
Other   |            | 0.005537   |            |       | 14.80

Nlocal:           1.25 ave           3 max           0 min
Histogram: 8 0 0 23 0 0 14 0 0 3
Nghost:         180.75 ave         183 max         177 min
Histogram: 2 7 0 5 0 3 7 0 18 6
Neighs:              0 ave           0 max           0 min
Histogram: 48 0 0 0 0 0 0 0 0 0
FullNghs:           52 ave         126 max           0 min
Histogram: 8 0 0 23 0 0 14 0 0 3

Total # of neighbors = 2496
Ave neighs/atom = 41.6
Neighbor list builds = 0
Dangerous builds = 0

# Obtain new stress tensor

variable tmp equal pe
variable e1 equal ${tmp}
variable e1 equal -241.921249295615
variable tmp equal press
variable p1 equal ${tmp}
variable p1 equal -9927.21981724058
variable tmp equal pxx
variable pxx1 equal ${tmp}
variable pxx1 equal -13026.1836136357
variable tmp equal pyy
variable pyy1 equal ${tmp}
variable pyy1 equal -13052.8740768705
variable tmp equal pzz
variable pzz1 equal ${tmp}
variable pzz1 equal -3702.60176121561
variable tmp equal pxy
variable pxy1 equal ${tmp}
variable pxy1 equal -2.54858937539094
variable tmp equal pxz
variable pxz1 equal ${tmp}
variable pxz1 equal 3.45215813301568
variable tmp equal pyz
variable pyz1 equal ${tmp}
variable pyz1 equal -1.62973587839466

# Compute elastic constant from pressure tensor

variable C1pos equal ${d1}
variable C1pos equal -644316.99714653
variable C2pos equal ${d2}
variable C2pos equal -644327.14946363
variable C3pos equal ${d3}
variable C3pos equal -1574795.53343189
variable C4pos equal ${d4}
variable C4pos equal 554.695389624885
variable C5pos equal ${d5}
variable C5pos equal -1251.25483327691
variable C6pos equal ${d6}
variable C6pos equal -373.936579941301

# Combine positive and negative

variable C1${dir} equal 0.5*(${C1neg}+${C1pos})
variable C13 equal 0.5*(${C1neg}+${C1pos})
variable C13 equal 0.5*(644343.40615734+${C1pos})
variable C13 equal 0.5*(644343.40615734+-644316.99714653)
variable C2${dir} equal 0.5*(${C2neg}+${C2pos})
variable C23 equal 0.5*(${C2neg}+${C2pos})
variable C23 equal 0.5*(644354.3336298+${C2pos})
variable C23 equal 0.5*(644354.3336298+-644327.14946363)
variable C3${dir} equal 0.5*(${C3neg}+${C3pos})
variable C33 equal 0.5*(${C3neg}+${C3pos})
variable C33 equal 0.5*(1574837.57670226+${C3pos})
variable C33 equal 0.5*(1574837.57670226+-1574795.53343189)
variable C4${dir} equal 0.5*(${C4neg}+${C4pos})
variable C43 equal 0.5*(${C4neg}+${C4pos})
variable C43 equal 0.5*(-554.108235713558+${C4pos})
variable C43 equal 0.5*(-554.108235713558+554.695389624885)
variable C5${dir} equal 0.5*(${C5neg}+${C5pos})
variable C53 equal 0.5*(${C5neg}+${C5pos})
variable C53 equal 0.5*(1251.07545993816+${C5pos})
variable C53 equal 0.5*(1251.07545993816+-1251.25483327691)
variable C6${dir} equal 0.5*(${C6neg}+${C6pos})
variable C63 equal 0.5*(${C6neg}+${C6pos})
variable C63 equal 0.5*(374.029114711708+${C6pos})
variable C63 equal 0.5*(374.029114711708+-373.936579941301)

# Delete dir to make sure it is not reused

variable dir delete

# uyz Perturbation

variable dir equal 4
include displace.mod
# NOTE: This script should not need to be
# modified. See in.elastic for more info.
#
# Find which reference length to use

if "${dir} == 1" then    "variable len0 equal ${lx0}"
if "${dir} == 2" then    "variable len0 equal ${ly0}"
if "${dir} == 3" then    "variable len0 equal ${lz0}"
if "${dir} == 4" then    "variable len0 equal ${lz0}"
variable len0 equal ${lz0}
variable len0 equal 29.9404304688083
if "${dir} == 5" then    "variable len0 equal ${lz0}"
if "${dir} == 6" then    "variable len0 equal ${ly0}"

# Reset box and simulation parameters

clear
box tilt large
read_restart restart.equil
Reading restart file ...
  restart file = 24 Mar 2022, LAMMPS = 24 Mar 2022
  restoring atom style atomic from restart
  triclinic box = (0.042726577 0.037058295 0.15121177) to (8.7370624 7.5664617 30.091642) with tilt (-4.3471038 0 0)
  3 by 2 by 8 MPI processor grid
  pair style nep stores no restart info
  60 atoms
  read_restart CPU = 0.102 seconds
include potential.mod
# NOTE: This script can be modified for different pair styles
# See in.elastic for more info.

# Choose potential
#pair_style	sw
#pair_coeff * * Si.sw Si

# MTP potential
pair_style  nep
pair_coeff  * *  nep_y2026_m04_d08_h20_m24_s14_generation100000.txt  Bi Sb Te


# Setup neighbor style
neighbor 1.0 nsq
neigh_modify once no every 1 delay 0 check yes

# Setup minimization style
min_style	     cg
min_modify	     dmax ${dmax} line quadratic
min_modify	     dmax 0.01 line quadratic

# Setup output
thermo		1
thermo_style custom step temp pe press pxx pyy pzz pxy pxz pyz lx ly lz vol
thermo_modify norm no

# Negative deformation

variable delta equal -${up}*${len0}
variable delta equal -1e-06*${len0}
variable delta equal -1e-06*29.9404304688083
variable deltaxy equal -${up}*xy
variable deltaxy equal -1e-06*xy
variable deltaxz equal -${up}*xz
variable deltaxz equal -1e-06*xz
variable deltayz equal -${up}*yz
variable deltayz equal -1e-06*yz
if "${dir} == 1" then    "change_box all x delta 0 ${delta} xy delta ${deltaxy} xz delta ${deltaxz} remap units box"
if "${dir} == 2" then    "change_box all y delta 0 ${delta} yz delta ${deltayz} remap units box"
if "${dir} == 3" then    "change_box all z delta 0 ${delta} remap units box"
if "${dir} == 4" then    "change_box all yz delta ${delta} remap units box"
change_box all yz delta ${delta} remap units box
change_box all yz delta -2.99404304688083e-05 remap units box
Changing box ...
  triclinic box = (0.042726577 0.037058295 0.15121177) to (8.7370624 7.5664617 30.091642) with tilt (-4.3471038 0 -2.994043e-05)
if "${dir} == 5" then    "change_box all xz delta ${delta} remap units box"
if "${dir} == 6" then    "change_box all xy delta ${delta} remap units box"

# Relax atoms positions

minimize ${etol} ${ftol} ${maxiter} ${maxeval}
minimize 0 ${ftol} ${maxiter} ${maxeval}
minimize 0 1e-18 ${maxiter} ${maxeval}
minimize 0 1e-18 100 ${maxeval}
minimize 0 1e-18 100 1000
Neighbor list info ...
  update every 1 steps, delay 0 steps, check yes
  max neighbors/atom: 2000, page size: 100000
  master list distance cutoff = 7
  ghost atom cutoff = 7
  1 neighbor lists, perpetual/occasional/extra = 1 0 0
  (1) pair nep, perpetual
      attributes: full, newton on
      pair build: full/nsq
      stencil: none
      bin: none
Per MPI rank memory allocation (min/avg/max) = 4.085 | 4.085 | 4.085 Mbytes
   Step          Temp          PotEng         Press           Pxx            Pyy            Pzz            Pxy            Pxz            Pyz             Lx             Ly             Lz           Volume    
       100   0             -241.17759     -19471.994     -19469.612     -19495.854     -19450.516     -6.3209879     -8.9940297      4.5653289      8.6943358      7.5294034      29.94043       1959.9952    
       101   0             -241.28211     -19387.945     -19469.225     -19488.189     -19206.42      -4.1525923     -10.881453     -1.5591317      8.6943358      7.5294034      29.94043       1959.9952    
       102   0             -241.37312     -19219.607     -19399.111     -19412.067     -18847.643     -3.1253299     -12.19193      -5.0349372      8.6943358      7.5294034      29.94043       1959.9952    
       103   0             -241.45123     -18970.158     -19265.961     -19274.024     -18370.489     -2.974042      -13.011815     -6.2558343      8.6943358      7.5294034      29.94043       1959.9952    
       104   0             -241.51871     -18646.239     -19077.671     -19081.731     -17779.315     -3.4011542     -13.463507     -5.7170763      8.6943358      7.5294034      29.94043       1959.9952    
       105   0             -241.5775      -18261.349     -18841.666     -18842.444     -17099.938     -4.1402971     -13.656145     -3.8730273      8.6943358      7.5294034      29.94043       1959.9952    
       106   0             -241.62908     -17824.284     -18564.355     -18562.453     -16346.044     -4.9662301     -13.687151     -1.1446565      8.6943358      7.5294034      29.94043       1959.9952    
       107   0             -241.67461     -17342.893     -18251.554     -18247.5       -15529.624     -5.700422      -13.639413      2.0858959      8.6943358      7.5294034      29.94043       1959.9952    
       108   0             -241.71499     -16824.45      -17908.486     -17902.77      -14662.093     -6.2152103     -13.577898      5.4832293      8.6943358      7.5294034      29.94043       1959.9952    
       109   0             -241.75089     -16275.197     -17539.703     -17532.804     -13753.085     -6.4337219     -13.546252      8.7689571      8.6943358      7.5294034      29.94043       1959.9952    
       110   0             -241.78279     -15700.443     -17149.039     -17141.434     -12810.858     -6.3258873     -13.564109      11.728607      8.6943358      7.5294034      29.94043       1959.9952    
       111   0             -241.81105     -15104.461     -16739.56      -16731.734     -11842.09      -5.9012532     -13.625966      14.213325      8.6943358      7.5294034      29.94043       1959.9952    
       112   0             -241.83589     -14490.473     -16313.57      -16306.021     -10851.827     -5.1999674     -13.701698      16.135275      8.6943358      7.5294034      29.94043       1959.9952    
       113   0             -241.85748     -13860.724     -15872.669     -15865.906     -9843.596      -4.2835337     -13.737877      17.457844      8.6943358      7.5294034      29.94043       1959.9952    
       114   0             -241.87586     -13216.642     -15417.863     -15412.415     -8819.6469     -3.2269621     -13.657834      18.182741      8.6943358      7.5294034      29.94043       1959.9952    
       115   0             -241.89107     -12559.104     -14949.763     -14946.183     -7781.3671     -2.1141513     -13.356754      18.336148      8.6943358      7.5294034      29.94043       1959.9952    
       116   0             -241.90305     -11888.952     -14468.957     -14467.842     -6730.0569     -1.0395794     -12.684363      17.954951      8.6943358      7.5294034      29.94043       1959.9952    
       117   0             -241.91172     -11208.252     -13976.956     -13978.964     -5668.8348     -0.12428624    -11.396194      17.071077      8.6943358      7.5294034      29.94043       1959.9952    
       118   0             -241.917       -10524.707     -13479.485     -13485.376     -4609.2604      0.42427792    -9.0071961      15.678756      8.6943358      7.5294034      29.94043       1959.9952    
       119   0             -241.91896     -9877.1515     -13005.464     -13016.211     -3609.7797      0.029016376   -4.1672106      13.554403      8.6943358      7.5294034      29.94043       1959.9952    
       120   0             -241.91955     -9922.245      -13038.87      -13051.51      -3676.3549     -1.8186019      0.61329118     11.533791      8.6943358      7.5294034      29.94043       1959.9952    
       121   0             -241.91993     -9908.6979     -13027.055     -13042.149     -3656.8905     -1.2622472     -0.7871014      8.847779       8.6943358      7.5294034      29.94043       1959.9952    
       122   0             -241.92011     -9882.9584     -13003.472     -13018.696     -3626.7072     -3.0802954      4.8240981      7.2838086      8.6943358      7.5294034      29.94043       1959.9952    
       123   0             -241.92059     -9991.5746     -13088.671     -13105.049     -3781.0033     -4.4571235      10.843902      5.4199384      8.6943358      7.5294034      29.94043       1959.9952    
       124   0             -241.92087     -9954.4644     -13057.328     -13077.244     -3728.8213     -1.8283821      3.25271        4.3419804      8.6943358      7.5294034      29.94043       1959.9952    
       125   0             -241.92099     -9930.0828     -13035.035     -13061.522     -3693.692      -1.2272701     -0.47529823    -0.86048139     8.6943358      7.5294034      29.94043       1959.9952    
       126   0             -241.92108     -9897.4997     -13007.633     -13033.8       -3651.0655     -3.0868371      4.1973258     -3.0031075      8.6943358      7.5294034      29.94043       1959.9952    
       127   0             -241.92113     -9889.5334     -13001.705     -13024.536     -3642.3587     -3.1896672      5.408346       0.054021756    8.6943358      7.5294034      29.94043       1959.9952    
       128   0             -241.92117     -9927.952      -13032.542     -13054.864     -3696.4498     -2.2384255      3.2915205      2.3044246      8.6943358      7.5294034      29.94043       1959.9952    
       129   0             -241.92121     -9937.2811     -13036.345     -13061.683     -3713.8154     -1.9335272      2.2039066     -0.35280913     8.6943358      7.5294034      29.94043       1959.9952    
       130   0             -241.92122     -9947.1072     -13043.109     -13069.076     -3729.1373     -2.0926266      2.6105739     -1.2248339      8.6943358      7.5294034      29.94043       1959.9952    
       131   0             -241.92123     -9929.2231     -13029.838     -13054.465     -3703.3663     -2.2629634      2.9966545      0.49326316     8.6943358      7.5294034      29.94043       1959.9952    
       132   0             -241.92124     -9921.9808     -13024.142     -13049.172     -3692.6282     -2.3497886      2.9331413      0.16393466     8.6943358      7.5294034      29.94043       1959.9952    
       133   0             -241.92124     -9920.246      -13021.851     -13047.806     -3691.0817     -2.5192134      3.1640466     -0.98852328     8.6943358      7.5294034      29.94043       1959.9952    
       134   0             -241.92125     -9922.6864     -13023.557     -13049.125     -3695.377      -2.7746039      3.7313004     -0.48319039     8.6943358      7.5294034      29.94043       1959.9952    
       135   0             -241.92125     -9934.5743     -13033.19      -13058.377     -3712.1555     -2.6989324      3.6315479      0.19998949     8.6943358      7.5294034      29.94043       1959.9952    
       136   0             -241.92125     -9933.497      -13031.771     -13057.618     -3711.1026     -2.1310518      2.5644932     -0.75502849     8.6943358      7.5294034      29.94043       1959.9952    
       137   0             -241.92125     -9932.1883     -13030.278     -13056.706     -3709.5812     -2.1016137      2.607024      -1.4337769      8.6943358      7.5294034      29.94043       1959.9952    
       138   0             -241.92125     -9927.0981     -13026.468     -13052.704     -3702.122      -2.6711899      3.7385643     -1.1190486      8.6943358      7.5294034      29.94043       1959.9952    
       139   0             -241.92125     -9925.7921     -13025.532     -13051.717     -3700.1278     -2.6937633      3.70971       -1.0518302      8.6943358      7.5294034      29.94043       1959.9952    
       140   0             -241.92125     -9926.3554     -13025.821     -13052.218     -3701.0279     -2.4429496      3.171375      -1.3072839      8.6943358      7.5294034      29.94043       1959.9952    
       141   0             -241.92125     -9926.9874     -13026.196     -13052.649     -3702.1168     -2.4312323      3.183159      -1.3774108      8.6943358      7.5294034      29.94043       1959.9952    
       142   0             -241.92125     -9928.5473     -13027.529     -13053.801     -3704.3126     -2.580449       3.5454726     -1.2003649      8.6943358      7.5294034      29.94043       1959.9952    
       143   0             -241.92125     -9927.8478     -13026.941     -13053.212     -3703.3901     -2.5766741      3.547641      -1.2024487      8.6943358      7.5294034      29.94043       1959.9952    
       144   0             -241.92125     -9927.4885     -13026.56      -13053.033     -3702.8726     -2.4983404      3.3409684     -1.3948549      8.6943358      7.5294034      29.94043       1959.9952    
       145   0             -241.92125     -9926.6512     -13025.889     -13052.383     -3701.6816     -2.5096046      3.3510873     -1.4218471      8.6943358      7.5294034      29.94043       1959.9952    
       146   0             -241.92125     -9926.5582     -13025.851     -13052.256     -3701.5671     -2.5357301      3.4294629     -1.3435336      8.6943358      7.5294034      29.94043       1959.9952    
       147   0             -241.92125     -9926.911      -13026.127     -13052.52      -3702.0858     -2.5386075      3.4543004     -1.3212572      8.6943358      7.5294034      29.94043       1959.9952    
       148   0             -241.92125     -9927.0437     -13026.189     -13052.649     -3702.2931     -2.5308848      3.416296      -1.3926867      8.6943358      7.5294034      29.94043       1959.9952    
       149   0             -241.92125     -9927.2567     -13026.331     -13052.814     -3702.6244     -2.5324811      3.4084082     -1.4153688      8.6943358      7.5294034      29.94043       1959.9952    
       150   0             -241.92125     -9927.068      -13026.194     -13052.624     -3702.3861     -2.5492649      3.4539089     -1.3545618      8.6943358      7.5294034      29.94043       1959.9952    
       151   0             -241.92125     -9927.0806     -13026.208     -13052.636     -3702.3985     -2.5528         3.4620279     -1.3507784      8.6943358      7.5294034      29.94043       1959.9952    
       152   0             -241.92125     -9927.0625     -13026.172     -13052.644     -3702.3717     -2.5400558      3.430895      -1.4013719      8.6943358      7.5294034      29.94043       1959.9952    
       153   0             -241.92125     -9927.0416     -13026.146     -13052.627     -3702.3513     -2.5378775      3.4275344     -1.4115018      8.6943358      7.5294034      29.94043       1959.9952    
       154   0             -241.92125     -9927.0963     -13026.201     -13052.66      -3702.4273     -2.5465795      3.4479166     -1.3837262      8.6943358      7.5294034      29.94043       1959.9952    
       155   0             -241.92125     -9927.0521     -13026.169     -13052.621     -3702.3663     -2.5460389      3.4463605     -1.3778171      8.6943358      7.5294034      29.94043       1959.9952    
       156   0             -241.92125     -9927.0939     -13026.196     -13052.658     -3702.4275     -2.5419811      3.4390994     -1.3927548      8.6943358      7.5294034      29.94043       1959.9952    
       157   0             -241.92125     -9927.051      -13026.152     -13052.625     -3702.3758     -2.5475252      3.4516255     -1.4031546      8.6943358      7.5294034      29.94043       1959.9952    
       158   0             -241.92125     -9927.0676     -13026.167     -13052.636     -3702.3994     -2.5508161      3.4565901     -1.3978783      8.6943358      7.5294034      29.94043       1959.9952    
       159   0             -241.92125     -9927.0633     -13026.167     -13052.63      -3702.3932     -2.5475565      3.4489997     -1.3900976      8.6943358      7.5294034      29.94043       1959.9952    
       160   0             -241.92125     -9927.0589     -13026.162     -13052.628     -3702.3869     -2.5469554      3.4492223     -1.3948046      8.6943358      7.5294034      29.94043       1959.9952    
       161   0             -241.92125     -9927.0647     -13026.165     -13052.634     -3702.395      -2.548475       3.4532376     -1.3990398      8.6943358      7.5294034      29.94043       1959.9952    
       162   0             -241.92125     -9927.0525     -13026.157     -13052.622     -3702.3789     -2.5480641      3.4513348     -1.3946749      8.6943358      7.5294034      29.94043       1959.9952    
       163   0             -241.92125     -9927.058      -13026.161     -13052.626     -3702.3867     -2.5473229      3.4489359     -1.3930064      8.6943358      7.5294034      29.94043       1959.9952    
       164   0             -241.92125     -9927.0546     -13026.156     -13052.625     -3702.3821     -2.5482958      3.4514047     -1.3981219      8.6943358      7.5294034      29.94043       1959.9952    
       165   0             -241.92125     -9927.0588     -13026.159     -13052.629     -3702.3883     -2.5490684      3.4533756     -1.3993057      8.6943358      7.5294034      29.94043       1959.9952    
       166   0             -241.92125     -9927.0622     -13026.163     -13052.63      -3702.3935     -2.5487595      3.4526856     -1.3959         8.6943358      7.5294034      29.94043       1959.9952    
       167   0             -241.92125     -9927.0597     -13026.161     -13052.628     -3702.39       -2.5482556      3.4514022     -1.3955754      8.6943358      7.5294034      29.94043       1959.9952    
       168   0             -241.92125     -9927.0606     -13026.161     -13052.629     -3702.391      -2.5483054      3.4514875     -1.397498       8.6943358      7.5294034      29.94043       1959.9952    
       169   0             -241.92125     -9927.0549     -13026.156     -13052.625     -3702.3833     -2.548817       3.4527324     -1.3985559      8.6943358      7.5294034      29.94043       1959.9952    
       170   0             -241.92125     -9927.0564     -13026.158     -13052.626     -3702.3855     -2.5488708      3.4528324     -1.397567       8.6943358      7.5294034      29.94043       1959.9952    
       171   0             -241.92125     -9927.057      -13026.159     -13052.626     -3702.3865     -2.548601       3.4522034     -1.3966123      8.6943358      7.5294034      29.94043       1959.9952    
       172   0             -241.92125     -9927.0588     -13026.16      -13052.627     -3702.3892     -2.5486381      3.4523059     -1.3969807      8.6943358      7.5294034      29.94043       1959.9952    
       173   0             -241.92125     -9927.0597     -13026.16      -13052.628     -3702.3906     -2.5488606      3.4528148     -1.3975841      8.6943358      7.5294034      29.94043       1959.9952    
       174   0             -241.92125     -9927.0589     -13026.16      -13052.628     -3702.3894     -2.5488539      3.4527882     -1.3973225      8.6943358      7.5294034      29.94043       1959.9952    
       175   0             -241.92125     -9927.0584     -13026.159     -13052.627     -3702.3887     -2.548772       3.4526044     -1.3969516      8.6943358      7.5294034      29.94043       1959.9952    
       176   0             -241.92125     -9927.0574     -13026.158     -13052.626     -3702.3873     -2.5488234      3.4527123     -1.3972528      8.6943358      7.5294034      29.94043       1959.9952    
       177   0             -241.92125     -9927.0578     -13026.159     -13052.627     -3702.3879     -2.5488614      3.4527866     -1.3974718      8.6943358      7.5294034      29.94043       1959.9952    
       178   0             -241.92125     -9927.0582     -13026.159     -13052.627     -3702.3886     -2.5488148      3.452689      -1.3972856      8.6943358      7.5294034      29.94043       1959.9952    
       179   0             -241.92125     -9927.0587     -13026.16      -13052.627     -3702.3893     -2.5487999      3.4526682     -1.3971797      8.6943358      7.5294034      29.94043       1959.9952    
       180   0             -241.92125     -9927.0588     -13026.16      -13052.627     -3702.3894     -2.5488354      3.4527532     -1.3972973      8.6943358      7.5294034      29.94043       1959.9952    
       181   0             -241.92125     -9927.0583     -13026.159     -13052.627     -3702.3887     -2.5488577      3.4527875     -1.3973927      8.6943358      7.5294034      29.94043       1959.9952    
       182   0             -241.92125     -9927.0581     -13026.159     -13052.627     -3702.3884     -2.5488563      3.4527713     -1.3973588      8.6943358      7.5294034      29.94043       1959.9952    
       183   0             -241.92125     -9927.058      -13026.159     -13052.627     -3702.3883     -2.5488469      3.4527573     -1.3972958      8.6943358      7.5294034      29.94043       1959.9952    
       184   0             -241.92125     -9927.0582     -13026.159     -13052.627     -3702.3885     -2.5488459      3.4527623     -1.3973001      8.6943358      7.5294034      29.94043       1959.9952    
       185   0             -241.92125     -9927.0583     -13026.159     -13052.627     -3702.3887     -2.5488505      3.4527738     -1.3973444      8.6943358      7.5294034      29.94043       1959.9952    
       186   0             -241.92125     -9927.0583     -13026.159     -13052.627     -3702.3887     -2.5488482      3.4527657     -1.3973341      8.6943358      7.5294034      29.94043       1959.9952    
       187   0             -241.92125     -9927.0583     -13026.159     -13052.627     -3702.3887     -2.5488442      3.4527548     -1.3973066      8.6943358      7.5294034      29.94043       1959.9952    
       188   0             -241.92125     -9927.0582     -13026.159     -13052.627     -3702.3885     -2.5488514      3.4527713     -1.3973244      8.6943358      7.5294034      29.94043       1959.9952    
       189   0             -241.92125     -9927.0582     -13026.159     -13052.627     -3702.3885     -2.5488566      3.4527824     -1.3973394      8.6943358      7.5294034      29.94043       1959.9952    
       190   0             -241.92125     -9927.0582     -13026.159     -13052.627     -3702.3886     -2.5488541      3.4527765     -1.3973328      8.6943358      7.5294034      29.94043       1959.9952    
       191   0             -241.92125     -9927.0582     -13026.159     -13052.627     -3702.3886     -2.5488521      3.4527725     -1.3973292      8.6943358      7.5294034      29.94043       1959.9952    
       192   0             -241.92125     -9927.0583     -13026.159     -13052.627     -3702.3886     -2.5488535      3.452776      -1.3973341      8.6943358      7.5294034      29.94043       1959.9952    
       193   0             -241.92125     -9927.0582     -13026.159     -13052.627     -3702.3886     -2.548854       3.4527774     -1.3973347      8.6943358      7.5294034      29.94043       1959.9952    
       194   0             -241.92125     -9927.0582     -13026.159     -13052.627     -3702.3886     -2.5488535      3.4527766     -1.3973318      8.6943358      7.5294034      29.94043       1959.9952    
       195   0             -241.92125     -9927.0582     -13026.159     -13052.627     -3702.3886     -2.5488536      3.4527763     -1.3973319      8.6943358      7.5294034      29.94043       1959.9952    
       196   0             -241.92125     -9927.0582     -13026.159     -13052.627     -3702.3886     -2.548854       3.4527767     -1.3973342      8.6943358      7.5294034      29.94043       1959.9952    
       197   0             -241.92125     -9927.0582     -13026.159     -13052.627     -3702.3886     -2.5488541      3.4527774     -1.3973355      8.6943358      7.5294034      29.94043       1959.9952    
       198   0             -241.92125     -9927.0582     -13026.159     -13052.627     -3702.3886     -2.5488541      3.4527777     -1.3973337      8.6943358      7.5294034      29.94043       1959.9952    
       199   0             -241.92125     -9927.0582     -13026.159     -13052.627     -3702.3886     -2.5488542      3.4527776     -1.3973321      8.6943358      7.5294034      29.94043       1959.9952    
       200   0             -241.92125     -9927.0582     -13026.159     -13052.627     -3702.3886     -2.5488541      3.4527772     -1.3973334      8.6943358      7.5294034      29.94043       1959.9952    
Loop time of 0.0371642 on 48 procs for 100 steps with 60 atoms

99.6% CPU use with 48 MPI tasks x no OpenMP threads

Minimization stats:
  Stopping criterion = max iterations
  Energy initial, next-to-last, final = 
     -241.177590409496  -241.921253826851  -241.921253826851
  Force two-norm initial, final = 2.1438277 3.6300808e-09
  Force max component initial, final = 0.41425608 7.6094203e-10
  Final line search alpha, max atom move = 1 7.6094203e-10
  Iterations, force evaluations = 100 178

MPI task timing breakdown:
Section |  min time  |  avg time  |  max time  |%varavg| %total
---------------------------------------------------------------
Pair    | 2.1137e-05 | 0.0091782  | 0.022283   |   6.1 | 24.70
Neigh   | 0          | 0          | 0          |   0.0 |  0.00
Comm    | 0.0060619  | 0.018681   | 0.028368   |   4.1 | 50.27
Output  | 0.0037146  | 0.0038057  | 0.0042728  |   0.1 | 10.24
Modify  | 0          | 0          | 0          |   0.0 |  0.00
Other   |            | 0.0055     |            |       | 14.80

Nlocal:           1.25 ave           3 max           0 min
Histogram: 8 0 0 23 0 0 14 0 0 3
Nghost:         180.75 ave         183 max         177 min
Histogram: 2 7 0 5 0 3 7 0 18 6
Neighs:              0 ave           0 max           0 min
Histogram: 48 0 0 0 0 0 0 0 0 0
FullNghs:           52 ave         126 max           0 min
Histogram: 8 0 0 23 0 0 14 0 0 3

Total # of neighbors = 2496
Ave neighs/atom = 41.6
Neighbor list builds = 0
Dangerous builds = 0

# Obtain new stress tensor

variable tmp equal pxx
variable pxx1 equal ${tmp}
variable pxx1 equal -13026.159068918
variable tmp equal pyy
variable pyy1 equal ${tmp}
variable pyy1 equal -13052.6270025865
variable tmp equal pzz
variable pzz1 equal ${tmp}
variable pzz1 equal -3702.38860572341
variable tmp equal pxy
variable pxy1 equal ${tmp}
variable pxy1 equal -2.54885407730282
variable tmp equal pxz
variable pxz1 equal ${tmp}
variable pxz1 equal 3.45277719503573
variable tmp equal pyz
variable pyz1 equal ${tmp}
variable pyz1 equal -1.39733340720843

# Compute elastic constant from pressure tensor

variable C1neg equal ${d1}
variable C1neg equal 644319.4516183
variable C2neg equal ${d2}
variable C2neg equal 644351.85689203
variable C3neg equal ${d3}
variable C3neg equal 1574816.84898111
variable C4neg equal ${d4}
variable C4neg equal -531.455142506262
variable C5neg equal ${d5}
variable C5neg equal 1251.31673947892
variable C6neg equal ${d6}
variable C6neg equal 373.910109750113

# Reset box and simulation parameters

clear
box tilt large
read_restart restart.equil
Reading restart file ...
  restart file = 24 Mar 2022, LAMMPS = 24 Mar 2022
  restoring atom style atomic from restart
  triclinic box = (0.042726577 0.037058295 0.15121177) to (8.7370624 7.5664617 30.091642) with tilt (-4.3471038 0 0)
  3 by 2 by 8 MPI processor grid
  pair style nep stores no restart info
  60 atoms
  read_restart CPU = 0.062 seconds
include potential.mod
# NOTE: This script can be modified for different pair styles
# See in.elastic for more info.

# Choose potential
#pair_style	sw
#pair_coeff * * Si.sw Si

# MTP potential
pair_style  nep
pair_coeff  * *  nep_y2026_m04_d08_h20_m24_s14_generation100000.txt  Bi Sb Te


# Setup neighbor style
neighbor 1.0 nsq
neigh_modify once no every 1 delay 0 check yes

# Setup minimization style
min_style	     cg
min_modify	     dmax ${dmax} line quadratic
min_modify	     dmax 0.01 line quadratic

# Setup output
thermo		1
thermo_style custom step temp pe press pxx pyy pzz pxy pxz pyz lx ly lz vol
thermo_modify norm no

# Positive deformation

variable delta equal ${up}*${len0}
variable delta equal 1e-06*${len0}
variable delta equal 1e-06*29.9404304688083
variable deltaxy equal ${up}*xy
variable deltaxy equal 1e-06*xy
variable deltaxz equal ${up}*xz
variable deltaxz equal 1e-06*xz
variable deltayz equal ${up}*yz
variable deltayz equal 1e-06*yz
if "${dir} == 1" then    "change_box all x delta 0 ${delta} xy delta ${deltaxy} xz delta ${deltaxz} remap units box"
if "${dir} == 2" then    "change_box all y delta 0 ${delta} yz delta ${deltayz} remap units box"
if "${dir} == 3" then    "change_box all z delta 0 ${delta} remap units box"
if "${dir} == 4" then    "change_box all yz delta ${delta} remap units box"
change_box all yz delta ${delta} remap units box
change_box all yz delta 2.99404304688083e-05 remap units box
Changing box ...
  triclinic box = (0.042726577 0.037058295 0.15121177) to (8.7370624 7.5664617 30.091642) with tilt (-4.3471038 0 2.994043e-05)
if "${dir} == 5" then    "change_box all xz delta ${delta} remap units box"
if "${dir} == 6" then    "change_box all xy delta ${delta} remap units box"

# Relax atoms positions

minimize ${etol} ${ftol} ${maxiter} ${maxeval}
minimize 0 ${ftol} ${maxiter} ${maxeval}
minimize 0 1e-18 ${maxiter} ${maxeval}
minimize 0 1e-18 100 ${maxeval}
minimize 0 1e-18 100 1000
Neighbor list info ...
  update every 1 steps, delay 0 steps, check yes
  max neighbors/atom: 2000, page size: 100000
  master list distance cutoff = 7
  ghost atom cutoff = 7
  1 neighbor lists, perpetual/occasional/extra = 1 0 0
  (1) pair nep, perpetual
      attributes: full, newton on
      pair build: full/nsq
      stencil: none
      bin: none
Per MPI rank memory allocation (min/avg/max) = 4.085 | 4.085 | 4.085 Mbytes
   Step          Temp          PotEng         Press           Pxx            Pyy            Pzz            Pxy            Pxz            Pyz             Lx             Ly             Lz           Volume    
       100   0             -241.17759     -19471.994     -19469.096     -19496.37      -19450.515     -6.3210628     -8.9939749      3.4353015      8.6943358      7.5294034      29.94043       1959.9952    
       101   0             -241.28211     -19387.944     -19468.723     -19488.69      -19206.419     -4.1526824     -10.881411     -2.6549604      8.6943358      7.5294034      29.94043       1959.9952    
       102   0             -241.37312     -19219.606     -19398.622     -19412.554     -18847.642     -3.125427      -12.191894     -6.0971356      8.6943358      7.5294034      29.94043       1959.9952    
       103   0             -241.45123     -18970.158     -19265.485     -19274.5       -18370.488     -2.9741388     -13.011779     -7.2853857      8.6943358      7.5294034      29.94043       1959.9952    
       104   0             -241.51871     -18646.239     -19077.208     -19082.194     -17779.314     -3.4012441     -13.463471     -6.7148567      8.6943358      7.5294034      29.94043       1959.9952    
       105   0             -241.5775      -18261.348     -18841.214     -18842.895     -17099.937     -4.1403743     -13.656108     -4.8398812      8.6943358      7.5294034      29.94043       1959.9952    
       106   0             -241.62908     -17824.284     -18563.915     -18562.892     -16346.043     -4.9662895     -13.687116     -2.0814208      8.6943358      7.5294034      29.94043       1959.9952    
       107   0             -241.67461     -17342.892     -18251.125     -18247.927     -15529.623     -5.700459      -13.639385      1.1783851      8.6943358      7.5294034      29.94043       1959.9952    
       108   0             -241.71499     -16824.449     -17908.068     -17903.187     -14662.092     -6.2152202     -13.577886      4.6041619      8.6943358      7.5294034      29.94043       1959.9952    
       109   0             -241.75089     -16275.196     -17539.297     -17533.209     -13753.083     -6.4337        -13.546265      7.9176059      8.6943358      7.5294034      29.94043       1959.9952    
       110   0             -241.78279     -15700.443     -17148.644     -17141.828     -12810.857     -6.3258284     -13.564162      10.904408      8.6943358      7.5294034      29.94043       1959.9952    
       111   0             -241.81105     -15104.46      -16739.176     -16732.117     -11842.088     -5.9011517     -13.626075      13.415979      8.6943358      7.5294034      29.94043       1959.9952    
       112   0             -241.83589     -14490.472     -16313.198     -16306.392     -10851.825     -5.1998169     -13.701885      15.364873      8.6943358      7.5294034      29.94043       1959.9952    
       113   0             -241.85748     -13860.723     -15872.31      -15866.265     -9843.5946     -4.2833264     -13.738168      16.71501       8.6943358      7.5294034      29.94043       1959.9952    
       114   0             -241.87586     -13216.641     -15417.517     -15412.76      -8819.6454     -3.2266882     -13.658256      17.468831      8.6943358      7.5294034      29.94043       1959.9952    
       115   0             -241.89107     -12559.104     -14949.432     -14946.514     -7781.3656     -2.1137982     -13.357344      17.653521      8.6943358      7.5294034      29.94043       1959.9952    
       116   0             -241.90305     -11888.951     -14468.643     -14468.155     -6730.0554     -1.0391296     -12.685166      17.307406      8.6943358      7.5294034      29.94043       1959.9952    
       117   0             -241.91172     -11208.251     -13976.662     -13979.257     -5668.8332     -0.12371397    -11.39727       16.464645      8.6943358      7.5294034      29.94043       1959.9952    
       118   0             -241.917       -10524.706     -13479.216     -13485.643     -4609.2584      0.42501569    -9.0086398      15.123438      8.6943358      7.5294034      29.94043       1959.9952    
       119   0             -241.91896     -9877.1502     -13005.232     -13016.442     -3609.7773      0.030010496   -4.1692114      13.069471      8.6943358      7.5294034      29.94043       1959.9952    
       120   0             -241.91955     -9922.2447     -13038.656     -13051.724     -3676.3538     -1.8173934      0.61082937     11.08364       8.6943358      7.5294034      29.94043       1959.9952    
       121   0             -241.91993     -9908.7035     -13026.833     -13042.379     -3656.8984     -1.2610664     -0.78952604     8.3739876      8.6943358      7.5294034      29.94043       1959.9952    
       122   0             -241.92011     -9882.9595     -13003.256     -13018.914     -3626.7084     -3.0789921      4.8214077      6.8279292      8.6943358      7.5294034      29.94043       1959.9952    
       123   0             -241.92059     -9991.5675     -13088.461     -13105.249     -3780.9922     -4.4557338      10.841039      4.9903518      8.6943358      7.5294034      29.94043       1959.9952    
       124   0             -241.92087     -9954.462      -13057.113     -13077.456     -3728.817      -1.8271052      3.2501051      3.8929049      8.6943358      7.5294034      29.94043       1959.9952    
       125   0             -241.92099     -9930.0854     -13034.815     -13061.746     -3693.6955     -1.2260773     -0.47774224    -1.3291241      8.6943358      7.5294034      29.94043       1959.9952    
       126   0             -241.92108     -9897.5072     -13007.417     -13034.028     -3651.0763     -3.0854789      4.1944692     -3.4690268      8.6943358      7.5294034      29.94043       1959.9952    
       127   0             -241.92113     -9889.5401     -13001.489     -13024.763     -3642.3686     -3.1882032      5.4052591     -0.41072992     8.6943358      7.5294034      29.94043       1959.9952    
       128   0             -241.92117     -9927.9569     -13032.321     -13055.093     -3696.4569     -2.2370776      3.2887574      1.8333321      8.6943358      7.5294034      29.94043       1959.9952    
       129   0             -241.92121     -9937.2845     -13036.123     -13061.911     -3713.8199     -1.9322724      2.2013518     -0.82592105     8.6943358      7.5294034      29.94043       1959.9952    
       130   0             -241.92122     -9947.1096     -13042.888     -13069.3       -3729.1402     -2.091311       2.6078325     -1.6923536      8.6943358      7.5294034      29.94043       1959.9952    
       131   0             -241.92123     -9929.2269     -13029.622     -13054.687     -3703.3711     -2.2615254      2.9936165      0.034335794    8.6943358      7.5294034      29.94043       1959.9952    
       132   0             -241.92124     -9921.9845     -13023.926     -13049.394     -3692.6332     -2.3483795      2.930212      -0.29575234     8.6943358      7.5294034      29.94043       1959.9952    
       133   0             -241.92124     -9920.2503     -13021.634     -13048.03      -3691.0875     -2.5178646      3.1612815     -1.451875       8.6943358      7.5294034      29.94043       1959.9952    
       134   0             -241.92125     -9922.6904     -13023.341     -13049.348     -3695.3824     -2.7731741      3.7283212     -0.94480218     8.6943358      7.5294034      29.94043       1959.9952    
       135   0             -241.92125     -9934.5785     -13032.974     -13058.6       -3712.1611     -2.6974171      3.6283413     -0.25926838     8.6943358      7.5294034      29.94043       1959.9952    
       136   0             -241.92125     -9933.5015     -13031.554     -13057.841     -3711.1086     -2.1296154      2.5615021     -1.217203       8.6943358      7.5294034      29.94043       1959.9952    
       137   0             -241.92125     -9932.1928     -13030.061     -13056.931     -3709.5872     -2.1002376      2.6041804     -1.8971523      8.6943358      7.5294034      29.94043       1959.9952    
       138   0             -241.92125     -9927.1025     -13026.252     -13052.928     -3702.1278     -2.6697514      3.7355632     -1.5794518      8.6943358      7.5294034      29.94043       1959.9952    
       139   0             -241.92125     -9925.7964     -13025.316     -13051.939     -3700.1335     -2.6922978      3.7066485     -1.5110338      8.6943358      7.5294034      29.94043       1959.9952    
       140   0             -241.92125     -9926.3596     -13025.605     -13052.44      -3701.0335     -2.4415103      3.1683814     -1.7668502      8.6943358      7.5294034      29.94043       1959.9952    
       141   0             -241.92125     -9926.9918     -13025.981     -13052.872     -3702.1226     -2.4297987      3.1801785     -1.8370802      8.6943358      7.5294034      29.94043       1959.9952    
       142   0             -241.92125     -9928.5517     -13027.314     -13054.023     -3704.3185     -2.5789901      3.542427      -1.6594065      8.6943358      7.5294034      29.94043       1959.9952    
       143   0             -241.92125     -9927.8523     -13026.726     -13053.434     -3703.3961     -2.5752049      3.544571      -1.6611702      8.6943358      7.5294034      29.94043       1959.9952    
       144   0             -241.92125     -9927.4929     -13026.345     -13053.255     -3702.8786     -2.4968882      3.3379432     -1.8540035      8.6943358      7.5294034      29.94043       1959.9952    
       145   0             -241.92125     -9926.6556     -13025.674     -13052.606     -3701.6875     -2.5081608      3.3480832     -1.8813564      8.6943358      7.5294034      29.94043       1959.9952    
       146   0             -241.92125     -9926.5625     -13025.636     -13052.479     -3701.5729     -2.5342785      3.4264387     -1.8027988      8.6943358      7.5294034      29.94043       1959.9952    
       147   0             -241.92125     -9926.9154     -13025.912     -13052.742     -3702.0916     -2.5371475      3.4512525     -1.77999        8.6943358      7.5294034      29.94043       1959.9952    
       148   0             -241.92125     -9927.048      -13025.974     -13052.872     -3702.2989     -2.5294327      3.4132683     -1.8515078      8.6943358      7.5294034      29.94043       1959.9952    
       149   0             -241.92125     -9927.2611     -13026.116     -13053.037     -3702.6304     -2.531036       3.4054003     -1.8744065      8.6943358      7.5294034      29.94043       1959.9952    
       150   0             -241.92125     -9927.0724     -13025.979     -13052.846     -3702.392      -2.547812       3.450882      -1.8134728      8.6943358      7.5294034      29.94043       1959.9952    
       151   0             -241.92125     -9927.085      -13025.993     -13052.858     -3702.4044     -2.5513416      3.4589869     -1.8095983      8.6943358      7.5294034      29.94043       1959.9952    
       152   0             -241.92125     -9927.0669     -13025.957     -13052.866     -3702.3776     -2.5386014      3.4278637     -1.8603016      8.6943358      7.5294034      29.94043       1959.9952    
       153   0             -241.92125     -9927.046      -13025.931     -13052.85      -3702.3572     -2.5364263      3.4245109     -1.8705037      8.6943358      7.5294034      29.94043       1959.9952    
       154   0             -241.92125     -9927.1006     -13025.986     -13052.882     -3702.4332     -2.5451268      3.444889      -1.842702       8.6943358      7.5294034      29.94043       1959.9952    
       155   0             -241.92125     -9927.0565     -13025.954     -13052.843     -3702.3721     -2.544584       3.4433278     -1.8367394      8.6943358      7.5294034      29.94043       1959.9952    
       156   0             -241.92125     -9927.0983     -13025.981     -13052.88      -3702.4333     -2.5405257      3.4360658     -1.8516535      8.6943358      7.5294034      29.94043       1959.9952    
       157   0             -241.92125     -9927.0554     -13025.937     -13052.847     -3702.3816     -2.5460717      3.4485963     -1.8620886      8.6943358      7.5294034      29.94043       1959.9952    
       158   0             -241.92125     -9927.072      -13025.952     -13052.859     -3702.4052     -2.5493623      3.4535606     -1.85681        8.6943358      7.5294034      29.94043       1959.9952    
       159   0             -241.92125     -9927.0677     -13025.952     -13052.852     -3702.399      -2.5461015      3.4459671     -1.8490049      8.6943358      7.5294034      29.94043       1959.9952    
       160   0             -241.92125     -9927.0633     -13025.947     -13052.85      -3702.3928     -2.5455007      3.4461904     -1.8537293      8.6943358      7.5294034      29.94043       1959.9952    
       161   0             -241.92125     -9927.0691     -13025.95      -13052.856     -3702.4008     -2.5470208      3.4502071     -1.857988       8.6943358      7.5294034      29.94043       1959.9952    
       162   0             -241.92125     -9927.0569     -13025.942     -13052.845     -3702.3847     -2.5466097      3.4483036     -1.8536131      8.6943358      7.5294034      29.94043       1959.9952    
       163   0             -241.92125     -9927.0624     -13025.946     -13052.848     -3702.3925     -2.5458682      3.445904      -1.8519306      8.6943358      7.5294034      29.94043       1959.9952    
       164   0             -241.92125     -9927.059      -13025.941     -13052.848     -3702.3879     -2.5468414      3.4483735     -1.8570515      8.6943358      7.5294034      29.94043       1959.9952    
       165   0             -241.92125     -9927.0632     -13025.944     -13052.851     -3702.3942     -2.547614       3.4503446     -1.8582396      8.6943358      7.5294034      29.94043       1959.9952    
       166   0             -241.92125     -9927.0665     -13025.948     -13052.852     -3702.3993     -2.547305       3.4496542     -1.85483        8.6943358      7.5294034      29.94043       1959.9952    
       167   0             -241.92125     -9927.0641     -13025.946     -13052.85      -3702.3959     -2.5468009      3.4483706     -1.8545019      8.6943358      7.5294034      29.94043       1959.9952    
       168   0             -241.92125     -9927.065      -13025.946     -13052.852     -3702.3969     -2.5468508      3.4484559     -1.8564261      8.6943358      7.5294034      29.94043       1959.9952    
       169   0             -241.92125     -9927.0592     -13025.941     -13052.847     -3702.3892     -2.5473624      3.4497009     -1.8574887      8.6943358      7.5294034      29.94043       1959.9952    
       170   0             -241.92125     -9927.0608     -13025.943     -13052.848     -3702.3914     -2.5474162      3.4498008     -1.8564993      8.6943358      7.5294034      29.94043       1959.9952    
       171   0             -241.92125     -9927.0614     -13025.944     -13052.848     -3702.3924     -2.5471463      3.4491717     -1.8555409      8.6943358      7.5294034      29.94043       1959.9952    
       172   0             -241.92125     -9927.0632     -13025.945     -13052.85      -3702.3951     -2.5471834      3.4492743     -1.8559086      8.6943358      7.5294034      29.94043       1959.9952    
       173   0             -241.92125     -9927.0641     -13025.945     -13052.851     -3702.3965     -2.547406       3.4497831     -1.8565134      8.6943358      7.5294034      29.94043       1959.9952    
       174   0             -241.92125     -9927.0633     -13025.945     -13052.85      -3702.3953     -2.5473993      3.4497565     -1.8562515      8.6943358      7.5294034      29.94043       1959.9952    
       175   0             -241.92125     -9927.0628     -13025.944     -13052.849     -3702.3945     -2.5473174      3.4495727     -1.8558796      8.6943358      7.5294034      29.94043       1959.9952    
       176   0             -241.92125     -9927.0617     -13025.943     -13052.849     -3702.3931     -2.5473688      3.4496805     -1.8561812      8.6943358      7.5294034      29.94043       1959.9952    
       177   0             -241.92125     -9927.0622     -13025.944     -13052.849     -3702.3938     -2.5474067      3.4497548     -1.8564006      8.6943358      7.5294034      29.94043       1959.9952    
       178   0             -241.92125     -9927.0626     -13025.944     -13052.849     -3702.3944     -2.5473601      3.4496572     -1.8562145      8.6943358      7.5294034      29.94043       1959.9952    
       179   0             -241.92125     -9927.0631     -13025.945     -13052.85      -3702.3951     -2.5473452      3.4496365     -1.8561082      8.6943358      7.5294034      29.94043       1959.9952    
       180   0             -241.92125     -9927.0632     -13025.945     -13052.85      -3702.3952     -2.5473808      3.4497215     -1.8562257      8.6943358      7.5294034      29.94043       1959.9952    
       181   0             -241.92125     -9927.0627     -13025.944     -13052.849     -3702.3945     -2.547403       3.4497558     -1.8563212      8.6943358      7.5294034      29.94043       1959.9952    
       182   0             -241.92125     -9927.0625     -13025.944     -13052.849     -3702.3943     -2.5474016      3.4497395     -1.8562873      8.6943358      7.5294034      29.94043       1959.9952    
       183   0             -241.92125     -9927.0624     -13025.944     -13052.849     -3702.3942     -2.5473922      3.4497255     -1.856224       8.6943358      7.5294034      29.94043       1959.9952    
       184   0             -241.92125     -9927.0626     -13025.944     -13052.849     -3702.3944     -2.5473912      3.4497306     -1.8562283      8.6943358      7.5294034      29.94043       1959.9952    
       185   0             -241.92125     -9927.0627     -13025.944     -13052.849     -3702.3945     -2.5473958      3.449742      -1.8562729      8.6943358      7.5294034      29.94043       1959.9952    
       186   0             -241.92125     -9927.0627     -13025.944     -13052.849     -3702.3946     -2.5473935      3.449734      -1.8562625      8.6943358      7.5294034      29.94043       1959.9952    
       187   0             -241.92125     -9927.0627     -13025.944     -13052.849     -3702.3945     -2.5473895      3.449723      -1.8562349      8.6943358      7.5294034      29.94043       1959.9952    
       188   0             -241.92125     -9927.0626     -13025.944     -13052.849     -3702.3944     -2.5473966      3.4497396     -1.8562527      8.6943358      7.5294034      29.94043       1959.9952    
       189   0             -241.92125     -9927.0626     -13025.944     -13052.849     -3702.3944     -2.5474019      3.4497507     -1.8562678      8.6943358      7.5294034      29.94043       1959.9952    
       190   0             -241.92125     -9927.0626     -13025.944     -13052.849     -3702.3944     -2.5473994      3.4497448     -1.8562612      8.6943358      7.5294034      29.94043       1959.9952    
       191   0             -241.92125     -9927.0626     -13025.944     -13052.849     -3702.3945     -2.5473974      3.4497408     -1.8562576      8.6943358      7.5294034      29.94043       1959.9952    
       192   0             -241.92125     -9927.0626     -13025.944     -13052.849     -3702.3945     -2.5473988      3.4497442     -1.8562625      8.6943358      7.5294034      29.94043       1959.9952    
       193   0             -241.92125     -9927.0626     -13025.944     -13052.849     -3702.3945     -2.5473993      3.4497457     -1.856263       8.6943358      7.5294034      29.94043       1959.9952    
       194   0             -241.92125     -9927.0626     -13025.944     -13052.849     -3702.3945     -2.5473988      3.4497448     -1.8562602      8.6943358      7.5294034      29.94043       1959.9952    
       195   0             -241.92125     -9927.0626     -13025.944     -13052.849     -3702.3945     -2.5473989      3.4497445     -1.8562603      8.6943358      7.5294034      29.94043       1959.9952    
       196   0             -241.92125     -9927.0626     -13025.944     -13052.849     -3702.3945     -2.5473993      3.4497449     -1.8562625      8.6943358      7.5294034      29.94043       1959.9952    
       197   0             -241.92125     -9927.0626     -13025.944     -13052.849     -3702.3945     -2.5473994      3.4497456     -1.8562638      8.6943358      7.5294034      29.94043       1959.9952    
       198   0             -241.92125     -9927.0626     -13025.944     -13052.849     -3702.3945     -2.5473994      3.449746      -1.856262       8.6943358      7.5294034      29.94043       1959.9952    
       199   0             -241.92125     -9927.0626     -13025.944     -13052.849     -3702.3945     -2.5473995      3.4497459     -1.8562604      8.6943358      7.5294034      29.94043       1959.9952    
       200   0             -241.92125     -9927.0626     -13025.944     -13052.849     -3702.3945     -2.5473994      3.4497454     -1.8562617      8.6943358      7.5294034      29.94043       1959.9952    
Loop time of 0.0758876 on 48 procs for 100 steps with 60 atoms

98.6% CPU use with 48 MPI tasks x no OpenMP threads

Minimization stats:
  Stopping criterion = max iterations
  Energy initial, next-to-last, final = 
     -241.177590419284   -241.92125382287   -241.92125382287
  Force two-norm initial, final = 2.1438276 3.6301308e-09
  Force max component initial, final = 0.41425607 7.6110518e-10
  Final line search alpha, max atom move = 1 7.6110518e-10
  Iterations, force evaluations = 100 178

MPI task timing breakdown:
Section |  min time  |  avg time  |  max time  |%varavg| %total
---------------------------------------------------------------
Pair    | 2.2453e-05 | 0.009235   | 0.022439   |   6.1 | 12.17
Neigh   | 0          | 0          | 0          |   0.0 |  0.00
Comm    | 0.0061436  | 0.019073   | 0.028808   |   4.1 | 25.13
Output  | 0.0038356  | 0.0047495  | 0.042352   |   8.0 |  6.26
Modify  | 0          | 0          | 0          |   0.0 |  0.00
Other   |            | 0.04283    |            |       | 56.44

Nlocal:           1.25 ave           3 max           0 min
Histogram: 8 0 0 23 0 0 14 0 0 3
Nghost:         180.75 ave         183 max         177 min
Histogram: 2 7 0 5 0 3 7 0 18 6
Neighs:              0 ave           0 max           0 min
Histogram: 48 0 0 0 0 0 0 0 0 0
FullNghs:           52 ave         126 max           0 min
Histogram: 8 0 0 23 0 0 14 0 0 3

Total # of neighbors = 2496
Ave neighs/atom = 41.6
Neighbor list builds = 0
Dangerous builds = 0

# Obtain new stress tensor

variable tmp equal pe
variable e1 equal ${tmp}
variable e1 equal -241.92125382287
variable tmp equal press
variable p1 equal ${tmp}
variable p1 equal -9927.06261695102
variable tmp equal pxx
variable pxx1 equal ${tmp}
variable pxx1 equal -13025.9440681119
variable tmp equal pyy
variable pyy1 equal ${tmp}
variable pyy1 equal -13052.8493054712
variable tmp equal pzz
variable pzz1 equal ${tmp}
variable pzz1 equal -3702.39447727002
variable tmp equal pxy
variable pxy1 equal ${tmp}
variable pxy1 equal -2.5473993712384
variable tmp equal pxz
variable pxz1 equal ${tmp}
variable pxz1 equal 3.44974544459495
variable tmp equal pyz
variable pyz1 equal ${tmp}
variable pyz1 equal -1.85626173717891

# Compute elastic constant from pressure tensor

variable C1pos equal ${d1}
variable C1pos equal -644340.95169891
variable C2pos equal ${d2}
variable C2pos equal -644329.62660356
variable C3pos equal ${d3}
variable C3pos equal -1574816.26182645
variable C4pos equal ${d4}
variable C4pos equal 577.34797550331
variable C5pos equal ${d5}
variable C5pos equal -1251.01356443484
variable C6pos equal ${d6}
variable C6pos equal -374.055580356555

# Combine positive and negative

variable C1${dir} equal 0.5*(${C1neg}+${C1pos})
variable C14 equal 0.5*(${C1neg}+${C1pos})
variable C14 equal 0.5*(644319.4516183+${C1pos})
variable C14 equal 0.5*(644319.4516183+-644340.95169891)
variable C2${dir} equal 0.5*(${C2neg}+${C2pos})
variable C24 equal 0.5*(${C2neg}+${C2pos})
variable C24 equal 0.5*(644351.85689203+${C2pos})
variable C24 equal 0.5*(644351.85689203+-644329.62660356)
variable C3${dir} equal 0.5*(${C3neg}+${C3pos})
variable C34 equal 0.5*(${C3neg}+${C3pos})
variable C34 equal 0.5*(1574816.84898111+${C3pos})
variable C34 equal 0.5*(1574816.84898111+-1574816.26182645)
variable C4${dir} equal 0.5*(${C4neg}+${C4pos})
variable C44 equal 0.5*(${C4neg}+${C4pos})
variable C44 equal 0.5*(-531.455142506262+${C4pos})
variable C44 equal 0.5*(-531.455142506262+577.34797550331)
variable C5${dir} equal 0.5*(${C5neg}+${C5pos})
variable C54 equal 0.5*(${C5neg}+${C5pos})
variable C54 equal 0.5*(1251.31673947892+${C5pos})
variable C54 equal 0.5*(1251.31673947892+-1251.01356443484)
variable C6${dir} equal 0.5*(${C6neg}+${C6pos})
variable C64 equal 0.5*(${C6neg}+${C6pos})
variable C64 equal 0.5*(373.910109750113+${C6pos})
variable C64 equal 0.5*(373.910109750113+-374.055580356555)

# Delete dir to make sure it is not reused

variable dir delete

# uxz Perturbation

variable dir equal 5
include displace.mod
# NOTE: This script should not need to be
# modified. See in.elastic for more info.
#
# Find which reference length to use

if "${dir} == 1" then    "variable len0 equal ${lx0}"
if "${dir} == 2" then    "variable len0 equal ${ly0}"
if "${dir} == 3" then    "variable len0 equal ${lz0}"
if "${dir} == 4" then    "variable len0 equal ${lz0}"
if "${dir} == 5" then    "variable len0 equal ${lz0}"
variable len0 equal ${lz0}
variable len0 equal 29.9404304688083
if "${dir} == 6" then    "variable len0 equal ${ly0}"

# Reset box and simulation parameters

clear
box tilt large
read_restart restart.equil
Reading restart file ...
  restart file = 24 Mar 2022, LAMMPS = 24 Mar 2022
  restoring atom style atomic from restart
  triclinic box = (0.042726577 0.037058295 0.15121177) to (8.7370624 7.5664617 30.091642) with tilt (-4.3471038 0 0)
  3 by 2 by 8 MPI processor grid
  pair style nep stores no restart info
  60 atoms
  read_restart CPU = 0.029 seconds
include potential.mod
# NOTE: This script can be modified for different pair styles
# See in.elastic for more info.

# Choose potential
#pair_style	sw
#pair_coeff * * Si.sw Si

# MTP potential
pair_style  nep
pair_coeff  * *  nep_y2026_m04_d08_h20_m24_s14_generation100000.txt  Bi Sb Te


# Setup neighbor style
neighbor 1.0 nsq
neigh_modify once no every 1 delay 0 check yes

# Setup minimization style
min_style	     cg
min_modify	     dmax ${dmax} line quadratic
min_modify	     dmax 0.01 line quadratic

# Setup output
thermo		1
thermo_style custom step temp pe press pxx pyy pzz pxy pxz pyz lx ly lz vol
thermo_modify norm no

# Negative deformation

variable delta equal -${up}*${len0}
variable delta equal -1e-06*${len0}
variable delta equal -1e-06*29.9404304688083
variable deltaxy equal -${up}*xy
variable deltaxy equal -1e-06*xy
variable deltaxz equal -${up}*xz
variable deltaxz equal -1e-06*xz
variable deltayz equal -${up}*yz
variable deltayz equal -1e-06*yz
if "${dir} == 1" then    "change_box all x delta 0 ${delta} xy delta ${deltaxy} xz delta ${deltaxz} remap units box"
if "${dir} == 2" then    "change_box all y delta 0 ${delta} yz delta ${deltayz} remap units box"
if "${dir} == 3" then    "change_box all z delta 0 ${delta} remap units box"
if "${dir} == 4" then    "change_box all yz delta ${delta} remap units box"
if "${dir} == 5" then    "change_box all xz delta ${delta} remap units box"
change_box all xz delta ${delta} remap units box
change_box all xz delta -2.99404304688083e-05 remap units box
Changing box ...
  triclinic box = (0.042726577 0.037058295 0.15121177) to (8.7370624 7.5664617 30.091642) with tilt (-4.3471038 -2.994043e-05 0)
if "${dir} == 6" then    "change_box all xy delta ${delta} remap units box"

# Relax atoms positions

minimize ${etol} ${ftol} ${maxiter} ${maxeval}
minimize 0 ${ftol} ${maxiter} ${maxeval}
minimize 0 1e-18 ${maxiter} ${maxeval}
minimize 0 1e-18 100 ${maxeval}
minimize 0 1e-18 100 1000
Neighbor list info ...
  update every 1 steps, delay 0 steps, check yes
  max neighbors/atom: 2000, page size: 100000
  master list distance cutoff = 7
  ghost atom cutoff = 7
  1 neighbor lists, perpetual/occasional/extra = 1 0 0
  (1) pair nep, perpetual
      attributes: full, newton on
      pair build: full/nsq
      stencil: none
      bin: none
Per MPI rank memory allocation (min/avg/max) = 4.085 | 4.085 | 4.085 Mbytes
   Step          Temp          PotEng         Press           Pxx            Pyy            Pzz            Pxy            Pxz            Pyz             Lx             Ly             Lz           Volume    
       100   0             -241.17759     -19471.994     -19469.354     -19496.112     -19450.515     -6.5788874     -8.4289609      4.000286       8.6943358      7.5294034      29.94043       1959.9952    
       101   0             -241.28211     -19387.944     -19468.974     -19488.44      -19206.419     -4.4034716     -10.333594     -2.1070689      8.6943358      7.5294034      29.94043       1959.9952    
       102   0             -241.37312     -19219.606     -19398.866     -19412.31      -18847.642     -3.3694857     -11.66095      -5.5660567      8.6943358      7.5294034      29.94043       1959.9952    
       103   0             -241.45123     -18970.158     -19265.723     -19274.262     -18370.488     -3.2117948     -12.497177     -6.7706294      8.6943358      7.5294034      29.94043       1959.9952    
       104   0             -241.51871     -18646.239     -19077.439     -19081.963     -17779.314     -3.6327468     -12.964734     -6.2159859      8.6943358      7.5294034      29.94043       1959.9952    
       105   0             -241.5775      -18261.349     -18841.44      -18842.669     -17099.937     -4.3659136     -13.172781     -4.3564736      8.6943358      7.5294034      29.94043       1959.9952    
       106   0             -241.62908     -17824.284     -18564.135     -18562.672     -16346.043     -5.1860147     -13.218754     -1.6130567      8.6943358      7.5294034      29.94043       1959.9952    
       107   0             -241.67461     -17342.892     -18251.339     -18247.713     -15529.623     -5.914487      -13.185554      1.6321261      8.6943358      7.5294034      29.94043       1959.9952    
       108   0             -241.71499     -16824.449     -17908.277     -17902.978     -14662.092     -6.4236354     -13.138169      5.0436887      8.6943358      7.5294034      29.94043       1959.9952    
       109   0             -241.75089     -16275.197     -17539.5       -17533.006     -13753.084     -6.6365466     -13.120296      8.3432873      8.6943358      7.5294034      29.94043       1959.9952    
       110   0             -241.78279     -15700.443     -17148.841     -17141.63      -12810.857     -6.5230967     -13.151661      11.316533      8.6943358      7.5294034      29.94043       1959.9952    
       111   0             -241.81105     -15104.461     -16739.368     -16731.926     -11842.089     -6.0927586     -13.226898      13.814705      8.6943358      7.5294034      29.94043       1959.9952    
       112   0             -241.83589     -14490.472     -16313.384     -16306.207     -10851.826     -5.3855802     -13.316082      15.750166      8.6943358      7.5294034      29.94043       1959.9952    
       113   0             -241.85748     -13860.723     -15872.489     -15866.085     -9843.5948     -4.4629315     -13.366055      17.086569      8.6943358      7.5294034      29.94043       1959.9952    
       114   0             -241.87586     -13216.641     -15417.69      -15412.587     -8819.6456     -3.3996416     -13.300514      17.825994      8.6943358      7.5294034      29.94043       1959.9952    
       115   0             -241.89107     -12559.104     -14949.597     -14946.348     -7781.3658     -2.2793583     -13.015153      17.995125      8.6943358      7.5294034      29.94043       1959.9952    
       116   0             -241.90305     -11888.951     -14468.8       -14467.998     -6730.0555     -1.1961944     -12.360425      17.631576      8.6943358      7.5294034      29.94043       1959.9952    
       117   0             -241.91172     -11208.251     -13976.809     -13979.11      -5668.8332     -0.27061375    -11.092996      16.768395      8.6943358      7.5294034      29.94043       1959.9952    
       118   0             -241.917       -10524.706     -13479.35      -13485.508     -4609.2584      0.29097496    -8.7298439      15.401817      8.6943358      7.5294034      29.94043       1959.9952    
       119   0             -241.91896     -9877.1501     -13005.348     -13016.325     -3609.7773     -0.086051268   -3.9255936      13.312946      8.6943358      7.5294034      29.94043       1959.9952    
       120   0             -241.91955     -9922.244      -13038.763     -13051.616     -3676.353      -1.9243577      0.83682442     11.309956      8.6943358      7.5294034      29.94043       1959.9952    
       121   0             -241.91993     -9908.7027     -13026.946     -13042.264     -3656.8975     -1.3738175     -0.55201317     8.6120863      8.6943358      7.5294034      29.94043       1959.9952    
       122   0             -241.92011     -9882.9586     -13003.364     -13018.804     -3626.7074     -3.1875752      5.0497921      7.0571527      8.6943358      7.5294034      29.94043       1959.9952    
       123   0             -241.92059     -9991.566      -13088.563     -13105.145     -3780.9902     -4.5578326      11.055909      5.2065325      8.6943358      7.5294034      29.94043       1959.9952    
       124   0             -241.92087     -9954.4602     -13057.219     -13077.347     -3728.8144     -1.9331817      3.4747564      4.1187742      8.6943358      7.5294034      29.94043       1959.9952    
       125   0             -241.92099     -9930.0833     -13034.925     -13061.633     -3693.6926     -1.3366234     -0.24338972    -1.0934482      8.6943358      7.5294034      29.94043       1959.9952    
       126   0             -241.92108     -9897.505      -13007.527     -13033.915     -3651.0732     -3.1960283      4.4273784     -3.2345755      8.6943358      7.5294034      29.94043       1959.9952    
       127   0             -241.92113     -9889.5384     -13001.599     -13024.65      -3642.3662     -3.2988059      5.6377175     -0.17679866     8.6943358      7.5294034      29.94043       1959.9952    
       128   0             -241.92117     -9927.956      -13032.433     -13054.979     -3696.4559     -2.3490456      3.5244695      2.0703338      8.6943358      7.5294034      29.94043       1959.9952    
       129   0             -241.92121     -9937.2836     -13036.235     -13061.797     -3713.8188     -2.0445107      2.4381463     -0.58802481     8.6943358      7.5294034      29.94043       1959.9952    
       130   0             -241.92122     -9947.1086     -13042.999     -13069.188     -3729.139      -2.2022851      2.8418558     -1.4571906      8.6943358      7.5294034      29.94043       1959.9952    
       131   0             -241.92123     -9929.225      -13029.731     -13054.576     -3703.3687     -2.3706115      3.2233399      0.2653119      8.6943358      7.5294034      29.94043       1959.9952    
       132   0             -241.92124     -9921.9827     -13024.035     -13049.282     -3692.6308     -2.4575641      3.1603419     -0.064455386    8.6943358      7.5294034      29.94043       1959.9952    
       133   0             -241.92124     -9920.2487     -13021.743     -13047.917     -3691.0854     -2.6278024      3.3933098     -1.2188301      8.6943358      7.5294034      29.94043       1959.9952    
       134   0             -241.92125     -9922.6891     -13023.45      -13049.237     -3695.3808     -2.8828055      3.9595086     -0.71252759     8.6943358      7.5294034      29.94043       1959.9952    
       135   0             -241.92125     -9934.5773     -13033.084     -13058.489     -3712.1596     -2.8066352      3.8583546     -0.028051231    8.6943358      7.5294034      29.94043       1959.9952    
       136   0             -241.92125     -9933.5        -13031.664     -13057.729     -3711.1067     -2.2394088      2.7929424     -0.98461139     8.6943358      7.5294034      29.94043       1959.9952    
       137   0             -241.92125     -9932.1911     -13030.17      -13056.818     -3709.585      -2.2102098      2.8361647     -1.6640355      8.6943358      7.5294034      29.94043       1959.9952    
       138   0             -241.92125     -9927.1008     -13026.361     -13052.816     -3702.1256     -2.7790654      3.9660528     -1.347767       8.6943358      7.5294034      29.94043       1959.9952    
       139   0             -241.92125     -9925.7947     -13025.425     -13051.828     -3700.1313     -2.8013551      3.936567      -1.2799167      8.6943358      7.5294034      29.94043       1959.9952    
       140   0             -241.92125     -9926.358      -13025.714     -13052.329     -3701.0315     -2.5506201      3.3984854     -1.5355642      8.6943358      7.5294034      29.94043       1959.9952    
       141   0             -241.92125     -9926.9902     -13026.09      -13052.76      -3702.1206     -2.5389062      3.4103221     -1.6057496      8.6943358      7.5294034      29.94043       1959.9952    
       142   0             -241.92125     -9928.5502     -13027.422     -13053.912     -3704.3166     -2.6879711      3.7722623     -1.4283758      8.6943358      7.5294034      29.94043       1959.9952    
       143   0             -241.92125     -9927.8507     -13026.835     -13053.323     -3703.3941     -2.6841422      3.7742747     -1.4302881      8.6943358      7.5294034      29.94043       1959.9952    
       144   0             -241.92125     -9927.4913     -13026.453     -13053.144     -3702.8765     -2.6059185      3.5678564     -1.6229181      8.6943358      7.5294034      29.94043       1959.9952    
       145   0             -241.92125     -9926.654      -13025.782     -13052.494     -3701.6854     -2.6172484      3.5781432     -1.6501009      8.6943358      7.5294034      29.94043       1959.9952    
       146   0             -241.92125     -9926.5609     -13025.745     -13052.367     -3701.5709     -2.6433107      3.6563738     -1.571661       8.6943358      7.5294034      29.94043       1959.9952    
       147   0             -241.92125     -9926.9138     -13026.021     -13052.631     -3702.0896     -2.646073       3.6809442     -1.549111       8.6943358      7.5294034      29.94043       1959.9952    
       148   0             -241.92125     -9927.0464     -13026.082     -13052.76      -3702.2969     -2.6383689      3.6430012     -1.6205889      8.6943358      7.5294034      29.94043       1959.9952    
       149   0             -241.92125     -9927.2595     -13026.225     -13052.925     -3702.6283     -2.6400061      3.6352248     -1.6433845      8.6943358      7.5294034      29.94043       1959.9952    
       150   0             -241.92125     -9927.0708     -13026.088     -13052.735     -3702.3899     -2.6567582      3.6806445     -1.5825078      8.6943358      7.5294034      29.94043       1959.9952    
       151   0             -241.92125     -9927.0834     -13026.101     -13052.746     -3702.4024     -2.6602764      3.6887144     -1.578675       8.6943358      7.5294034      29.94043       1959.9952    
       152   0             -241.92125     -9927.0653     -13026.066     -13052.754     -3702.3756     -2.6475613      3.6576489     -1.629327       8.6943358      7.5294034      29.94043       1959.9952    
       153   0             -241.92125     -9927.0444     -13026.04      -13052.738     -3702.3551     -2.6453994      3.6543272     -1.6394947      8.6943358      7.5294034      29.94043       1959.9952    
       154   0             -241.92125     -9927.099      -13026.095     -13052.771     -3702.4312     -2.654092       3.6746862     -1.6117057      8.6943358      7.5294034      29.94043       1959.9952    
       155   0             -241.92125     -9927.0549     -13026.063     -13052.732     -3702.3701     -2.65354        3.6731034     -1.6057681      8.6943358      7.5294034      29.94043       1959.9952    
       156   0             -241.92125     -9927.0967     -13026.09      -13052.769     -3702.4313     -2.6494791      3.665837      -1.6206927      8.6943358      7.5294034      29.94043       1959.9952    
       157   0             -241.92125     -9927.0538     -13026.046     -13052.736     -3702.3796     -2.6550293      3.6783801     -1.6311115      8.6943358      7.5294034      29.94043       1959.9952    
       158   0             -241.92125     -9927.0704     -13026.061     -13052.747     -3702.4032     -2.6583181      3.6833399     -1.6258343      8.6943358      7.5294034      29.94043       1959.9952    
       159   0             -241.92125     -9927.0661     -13026.061     -13052.741     -3702.397      -2.6550533      3.6757353     -1.6180404      8.6943358      7.5294034      29.94043       1959.9952    
       160   0             -241.92125     -9927.0617     -13026.056     -13052.739     -3702.3907     -2.6544569      3.6759685     -1.6227561      8.6943358      7.5294034      29.94043       1959.9952    
       161   0             -241.92125     -9927.0675     -13026.059     -13052.745     -3702.3988     -2.6559818      3.6799964     -1.6270034      8.6943358      7.5294034      29.94043       1959.9952    
       162   0             -241.92125     -9927.0553     -13026.05      -13052.733     -3702.3827     -2.6555681      3.6780869     -1.6226336      8.6943358      7.5294034      29.94043       1959.9952    
       163   0             -241.92125     -9927.0608     -13026.055     -13052.737     -3702.3905     -2.6548236      3.6756802     -1.620958       8.6943358      7.5294034      29.94043       1959.9952    
       164   0             -241.92125     -9927.0574     -13026.05      -13052.736     -3702.3859     -2.6557981      3.6781532     -1.6260763      8.6943358      7.5294034      29.94043       1959.9952    
       165   0             -241.92125     -9927.0616     -13026.053     -13052.74      -3702.3921     -2.6565715      3.6801266     -1.6272623      8.6943358      7.5294034      29.94043       1959.9952    
       166   0             -241.92125     -9927.0649     -13026.057     -13052.741     -3702.3973     -2.6562612      3.6794333     -1.6238544      8.6943358      7.5294034      29.94043       1959.9952    
       167   0             -241.92125     -9927.0625     -13026.055     -13052.739     -3702.3938     -2.6557566      3.6781481     -1.623528       8.6943358      7.5294034      29.94043       1959.9952    
       168   0             -241.92125     -9927.0633     -13026.055     -13052.74      -3702.3949     -2.655807       3.6782348     -1.6254514      8.6943358      7.5294034      29.94043       1959.9952    
       169   0             -241.92125     -9927.0576     -13026.05      -13052.736     -3702.3871     -2.6563196      3.6794821     -1.6265117      8.6943358      7.5294034      29.94043       1959.9952    
       170   0             -241.92125     -9927.0592     -13026.052     -13052.737     -3702.3893     -2.6563731      3.6795813     -1.6255225      8.6943358      7.5294034      29.94043       1959.9952    
       171   0             -241.92125     -9927.0598     -13026.052     -13052.737     -3702.3903     -2.6561025      3.6789503     -1.6245659      8.6943358      7.5294034      29.94043       1959.9952    
       172   0             -241.92125     -9927.0616     -13026.053     -13052.738     -3702.3931     -2.6561394      3.6790527     -1.624934       8.6943358      7.5294034      29.94043       1959.9952    
       173   0             -241.92125     -9927.0625     -13026.054     -13052.739     -3702.3944     -2.6563622      3.6795623     -1.6255381      8.6943358      7.5294034      29.94043       1959.9952    
       174   0             -241.92125     -9927.0617     -13026.053     -13052.738     -3702.3933     -2.6563554      3.6795354     -1.6252764      8.6943358      7.5294034      29.94043       1959.9952    
       175   0             -241.92125     -9927.0612     -13026.053     -13052.738     -3702.3925     -2.6562733      3.679351      -1.6249049      8.6943358      7.5294034      29.94043       1959.9952    
       176   0             -241.92125     -9927.0601     -13026.052     -13052.737     -3702.3911     -2.6563248      3.6794591     -1.6252063      8.6943358      7.5294034      29.94043       1959.9952    
       177   0             -241.92125     -9927.0606     -13026.052     -13052.738     -3702.3917     -2.6563629      3.6795337     -1.6254255      8.6943358      7.5294034      29.94043       1959.9952    
       178   0             -241.92125     -9927.061      -13026.053     -13052.738     -3702.3924     -2.6563163      3.679436      -1.6252393      8.6943358      7.5294034      29.94043       1959.9952    
       179   0             -241.92125     -9927.0615     -13026.053     -13052.738     -3702.3931     -2.6563012      3.6794151     -1.6251332      8.6943358      7.5294034      29.94043       1959.9952    
       180   0             -241.92125     -9927.0616     -13026.053     -13052.738     -3702.3932     -2.6563368      3.6795001     -1.6252508      8.6943358      7.5294034      29.94043       1959.9952    
       181   0             -241.92125     -9927.0611     -13026.053     -13052.738     -3702.3925     -2.656359       3.6795345     -1.6253462      8.6943358      7.5294034      29.94043       1959.9952    
       182   0             -241.92125     -9927.0609     -13026.053     -13052.738     -3702.3923     -2.6563576      3.6795182     -1.6253123      8.6943358      7.5294034      29.94043       1959.9952    
       183   0             -241.92125     -9927.0608     -13026.053     -13052.738     -3702.3921     -2.6563482      3.679504      -1.6252492      8.6943358      7.5294034      29.94043       1959.9952    
       184   0             -241.92125     -9927.061      -13026.053     -13052.738     -3702.3924     -2.6563472      3.6795091     -1.6252535      8.6943358      7.5294034      29.94043       1959.9952    
       185   0             -241.92125     -9927.0611     -13026.053     -13052.738     -3702.3925     -2.6563518      3.6795207     -1.6252979      8.6943358      7.5294034      29.94043       1959.9952    
       186   0             -241.92125     -9927.0611     -13026.053     -13052.738     -3702.3925     -2.6563495      3.6795126     -1.6252876      8.6943358      7.5294034      29.94043       1959.9952    
       187   0             -241.92125     -9927.0611     -13026.053     -13052.738     -3702.3925     -2.6563455      3.6795015     -1.6252601      8.6943358      7.5294034      29.94043       1959.9952    
       188   0             -241.92125     -9927.061      -13026.053     -13052.738     -3702.3924     -2.6563527      3.6795181     -1.6252779      8.6943358      7.5294034      29.94043       1959.9952    
       189   0             -241.92125     -9927.061      -13026.053     -13052.738     -3702.3924     -2.6563579      3.6795293     -1.6252929      8.6943358      7.5294034      29.94043       1959.9952    
       190   0             -241.92125     -9927.061      -13026.053     -13052.738     -3702.3924     -2.6563554      3.6795233     -1.6252863      8.6943358      7.5294034      29.94043       1959.9952    
       191   0             -241.92125     -9927.061      -13026.053     -13052.738     -3702.3925     -2.6563534      3.6795193     -1.6252827      8.6943358      7.5294034      29.94043       1959.9952    
       192   0             -241.92125     -9927.061      -13026.053     -13052.738     -3702.3925     -2.6563548      3.6795228     -1.6252876      8.6943358      7.5294034      29.94043       1959.9952    
       193   0             -241.92125     -9927.061      -13026.053     -13052.738     -3702.3924     -2.6563553      3.6795242     -1.6252881      8.6943358      7.5294034      29.94043       1959.9952    
       194   0             -241.92125     -9927.061      -13026.053     -13052.738     -3702.3924     -2.6563548      3.6795234     -1.6252853      8.6943358      7.5294034      29.94043       1959.9952    
       195   0             -241.92125     -9927.061      -13026.053     -13052.738     -3702.3924     -2.6563549      3.6795231     -1.6252854      8.6943358      7.5294034      29.94043       1959.9952    
       196   0             -241.92125     -9927.061      -13026.053     -13052.738     -3702.3924     -2.6563553      3.6795235     -1.6252876      8.6943358      7.5294034      29.94043       1959.9952    
       197   0             -241.92125     -9927.061      -13026.053     -13052.738     -3702.3924     -2.6563554      3.6795242     -1.6252889      8.6943358      7.5294034      29.94043       1959.9952    
       198   0             -241.92125     -9927.061      -13026.053     -13052.738     -3702.3925     -2.6563554      3.6795245     -1.6252871      8.6943358      7.5294034      29.94043       1959.9952    
       199   0             -241.92125     -9927.061      -13026.053     -13052.738     -3702.3924     -2.6563555      3.6795244     -1.6252855      8.6943358      7.5294034      29.94043       1959.9952    
       200   0             -241.92125     -9927.061      -13026.053     -13052.738     -3702.3924     -2.6563554      3.679524      -1.6252869      8.6943358      7.5294034      29.94043       1959.9952    
Loop time of 0.0376094 on 48 procs for 100 steps with 60 atoms

99.6% CPU use with 48 MPI tasks x no OpenMP threads

Minimization stats:
  Stopping criterion = max iterations
  Energy initial, next-to-last, final = 
     -241.177590425393  -241.921253820639  -241.921253820639
  Force two-norm initial, final = 2.1438277 3.6303238e-09
  Force max component initial, final = 0.41425606 7.6125822e-10
  Final line search alpha, max atom move = 1 7.6125822e-10
  Iterations, force evaluations = 100 178

MPI task timing breakdown:
Section |  min time  |  avg time  |  max time  |%varavg| %total
---------------------------------------------------------------
Pair    | 2.1294e-05 | 0.009258   | 0.022513   |   6.1 | 24.62
Neigh   | 0          | 0          | 0          |   0.0 |  0.00
Comm    | 0.0061394  | 0.018799   | 0.028586   |   4.1 | 49.99
Output  | 0.003826   | 0.0039098  | 0.00438    |   0.1 | 10.40
Modify  | 0          | 0          | 0          |   0.0 |  0.00
Other   |            | 0.005642   |            |       | 15.00

Nlocal:           1.25 ave           3 max           0 min
Histogram: 8 0 0 23 0 0 14 0 0 3
Nghost:         180.75 ave         183 max         177 min
Histogram: 2 7 0 5 0 3 7 0 18 6
Neighs:              0 ave           0 max           0 min
Histogram: 48 0 0 0 0 0 0 0 0 0
FullNghs:           52 ave         126 max           0 min
Histogram: 8 0 0 23 0 0 14 0 0 3

Total # of neighbors = 2496
Ave neighs/atom = 41.6
Neighbor list builds = 0
Dangerous builds = 0

# Obtain new stress tensor

variable tmp equal pxx
variable pxx1 equal ${tmp}
variable pxx1 equal -13026.0527650202
variable tmp equal pyy
variable pyy1 equal ${tmp}
variable pyy1 equal -13052.737832676
variable tmp equal pzz
variable pzz1 equal ${tmp}
variable pzz1 equal -3702.3924383393
variable tmp equal pxy
variable pxy1 equal ${tmp}
variable pxy1 equal -2.65635537936297
variable tmp equal pxz
variable pxz1 equal ${tmp}
variable pxz1 equal 3.67952399124852
variable tmp equal pyz
variable pyz1 equal ${tmp}
variable pyz1 equal -1.62528686154318

# Compute elastic constant from pressure tensor

variable C1neg equal ${d1}
variable C1neg equal 644330.08200808
variable C2neg equal ${d2}
variable C2neg equal 644340.77388308
variable C3neg equal ${d3}
variable C3neg equal 1574816.46571952
variable C4neg equal ${d4}
variable C4neg equal -554.250487939737
variable C5neg equal ${d5}
variable C5neg equal 1273.9914191002
variable C6neg equal ${d6}
variable C6neg equal 363.159979544098

# Reset box and simulation parameters

clear
box tilt large
read_restart restart.equil
Reading restart file ...
  restart file = 24 Mar 2022, LAMMPS = 24 Mar 2022
  restoring atom style atomic from restart
  triclinic box = (0.042726577 0.037058295 0.15121177) to (8.7370624 7.5664617 30.091642) with tilt (-4.3471038 0 0)
  3 by 2 by 8 MPI processor grid
  pair style nep stores no restart info
  60 atoms
  read_restart CPU = 0.063 seconds
include potential.mod
# NOTE: This script can be modified for different pair styles
# See in.elastic for more info.

# Choose potential
#pair_style	sw
#pair_coeff * * Si.sw Si

# MTP potential
pair_style  nep
pair_coeff  * *  nep_y2026_m04_d08_h20_m24_s14_generation100000.txt  Bi Sb Te


# Setup neighbor style
neighbor 1.0 nsq
neigh_modify once no every 1 delay 0 check yes

# Setup minimization style
min_style	     cg
min_modify	     dmax ${dmax} line quadratic
min_modify	     dmax 0.01 line quadratic

# Setup output
thermo		1
thermo_style custom step temp pe press pxx pyy pzz pxy pxz pyz lx ly lz vol
thermo_modify norm no

# Positive deformation

variable delta equal ${up}*${len0}
variable delta equal 1e-06*${len0}
variable delta equal 1e-06*29.9404304688083
variable deltaxy equal ${up}*xy
variable deltaxy equal 1e-06*xy
variable deltaxz equal ${up}*xz
variable deltaxz equal 1e-06*xz
variable deltayz equal ${up}*yz
variable deltayz equal 1e-06*yz
if "${dir} == 1" then    "change_box all x delta 0 ${delta} xy delta ${deltaxy} xz delta ${deltaxz} remap units box"
if "${dir} == 2" then    "change_box all y delta 0 ${delta} yz delta ${deltayz} remap units box"
if "${dir} == 3" then    "change_box all z delta 0 ${delta} remap units box"
if "${dir} == 4" then    "change_box all yz delta ${delta} remap units box"
if "${dir} == 5" then    "change_box all xz delta ${delta} remap units box"
change_box all xz delta ${delta} remap units box
change_box all xz delta 2.99404304688083e-05 remap units box
Changing box ...
  triclinic box = (0.042726577 0.037058295 0.15121177) to (8.7370624 7.5664617 30.091642) with tilt (-4.3471038 2.994043e-05 0)
if "${dir} == 6" then    "change_box all xy delta ${delta} remap units box"

# Relax atoms positions

minimize ${etol} ${ftol} ${maxiter} ${maxeval}
minimize 0 ${ftol} ${maxiter} ${maxeval}
minimize 0 1e-18 ${maxiter} ${maxeval}
minimize 0 1e-18 100 ${maxeval}
minimize 0 1e-18 100 1000
Neighbor list info ...
  update every 1 steps, delay 0 steps, check yes
  max neighbors/atom: 2000, page size: 100000
  master list distance cutoff = 7
  ghost atom cutoff = 7
  1 neighbor lists, perpetual/occasional/extra = 1 0 0
  (1) pair nep, perpetual
      attributes: full, newton on
      pair build: full/nsq
      stencil: none
      bin: none
Per MPI rank memory allocation (min/avg/max) = 4.085 | 4.085 | 4.085 Mbytes
   Step          Temp          PotEng         Press           Pxx            Pyy            Pzz            Pxy            Pxz            Pyz             Lx             Ly             Lz           Volume    
       100   0             -241.17759     -19471.994     -19469.354     -19496.112     -19450.516     -6.0631633     -9.5590436      4.0003408      8.6943358      7.5294034      29.94043       1959.9952    
       101   0             -241.28211     -19387.945     -19468.974     -19488.44      -19206.42      -3.9018032     -11.429271     -2.1070267      8.6943358      7.5294034      29.94043       1959.9952    
       102   0             -241.37312     -19219.607     -19398.867     -19412.311     -18847.643     -2.8812712     -12.722874     -5.5660193      8.6943358      7.5294034      29.94043       1959.9952    
       103   0             -241.45123     -18970.158     -19265.723     -19274.262     -18370.489     -2.736386      -13.526417     -6.7705937      8.6943358      7.5294034      29.94043       1959.9952    
       104   0             -241.51871     -18646.239     -19077.439     -19081.963     -17779.315     -3.1696515     -13.962244     -6.2159501      8.6943358      7.5294034      29.94043       1959.9952    
       105   0             -241.5775      -18261.349     -18841.44      -18842.669     -17099.938     -3.9147578     -14.139472     -4.3564379      8.6943358      7.5294034      29.94043       1959.9952    
       106   0             -241.62908     -17824.284     -18564.136     -18562.673     -16346.044     -4.7465049     -14.155512     -1.6130236      8.6943358      7.5294034      29.94043       1959.9952    
       107   0             -241.67461     -17342.893     -18251.34      -18247.714     -15529.624     -5.486394      -14.093245      1.6321517      8.6943358      7.5294034      29.94043       1959.9952    
       108   0             -241.71499     -16824.45      -17908.277     -17902.979     -14662.093     -6.0067951     -14.017615      5.0436992      8.6943358      7.5294034      29.94043       1959.9952    
       109   0             -241.75089     -16275.197     -17539.5       -17533.007     -13753.084     -6.2308753     -13.972221      8.3432723      8.6943358      7.5294034      29.94043       1959.9952    
       110   0             -241.78279     -15700.443     -17148.841     -17141.631     -12810.858     -6.128619      -13.97661       11.316479      8.6943358      7.5294034      29.94043       1959.9952    
       111   0             -241.81105     -15104.461     -16739.368     -16731.926     -11842.09      -5.7096463     -14.025143      13.814595      8.6943358      7.5294034      29.94043       1959.9952    
       112   0             -241.83589     -14490.473     -16313.384     -16306.207     -10851.827     -5.014204      -14.087502      15.749978      8.6943358      7.5294034      29.94043       1959.9952    
       113   0             -241.85748     -13860.724     -15872.489     -15866.086     -9843.5958     -4.1039285     -14.109991      17.08628       8.6943358      7.5294034      29.94043       1959.9952    
       114   0             -241.87586     -13216.642     -15417.69      -15412.588     -8819.6467     -3.0540087     -14.015576      17.825574      8.6943358      7.5294034      29.94043       1959.9952    
       115   0             -241.89107     -12559.104     -14949.597     -14946.349     -7781.3669     -1.9485913     -13.698945      17.994538      8.6943358      7.5294034      29.94043       1959.9952    
       116   0             -241.90305     -11888.952     -14468.8       -14467.999     -6730.0569     -0.88251461    -13.009104      17.630776      8.6943358      7.5294034      29.94043       1959.9952    
       117   0             -241.91172     -11208.252     -13976.809     -13979.111     -5668.8348      0.022613562   -11.700468      16.767321      8.6943358      7.5294034      29.94043       1959.9952    
       118   0             -241.917       -10524.707     -13479.351     -13485.51      -4609.2604      0.55831868    -9.2859921      15.40037       8.6943358      7.5294034      29.94043       1959.9952    
       119   0             -241.91896     -9877.1516     -13005.348     -13016.327     -3609.7797      0.14507821    -4.4108287      13.310919      8.6943358      7.5294034      29.94043       1959.9952    
       120   0             -241.91955     -9922.2458     -13038.763     -13051.619     -3676.3558     -1.7116375      0.38729595     11.307465      8.6943358      7.5294034      29.94043       1959.9952    
       121   0             -241.91993     -9908.6987     -13026.942     -13042.263     -3656.8914     -1.1494962     -1.0246142      8.6096705      8.6943358      7.5294034      29.94043       1959.9952    
       122   0             -241.92011     -9882.9592     -13003.363     -13018.806     -3626.7082     -2.9717125      4.595714       7.0545751      8.6943358      7.5294034      29.94043       1959.9952    
       123   0             -241.92059     -9991.5761     -13088.569     -13105.154     -3781.0053     -4.3550248      10.629032      5.2037477      8.6943358      7.5294034      29.94043       1959.9952    
       124   0             -241.92087     -9954.4662     -13057.222     -13077.353     -3728.8239     -1.7223056      3.0280587      4.1161015      8.6943358      7.5294034      29.94043       1959.9952    
       125   0             -241.92099     -9930.0849     -13034.925     -13061.635     -3693.6949     -1.1167241     -0.70965081    -1.0961671      8.6943358      7.5294034      29.94043       1959.9952    
       126   0             -241.92108     -9897.502      -13007.523     -13033.914     -3651.0686     -2.9762879      3.9644169     -3.2375692      8.6943358      7.5294034      29.94043       1959.9952    
       127   0             -241.92113     -9889.5351     -13001.595     -13024.649     -3642.3611     -3.0790647      5.1758879     -0.17992        8.6943358      7.5294034      29.94043       1959.9952    
       128   0             -241.92117     -9927.9528     -13032.429     -13054.978     -3696.4509     -2.1264576      3.0558086      2.0674127      8.6943358      7.5294034      29.94043       1959.9952    
       129   0             -241.92121     -9937.282      -13036.233     -13061.797     -3713.8165     -1.8212889      1.9671121     -0.59071494     8.6943358      7.5294034      29.94043       1959.9952    
       130   0             -241.92122     -9947.1082     -13042.997     -13069.189     -3729.1385     -1.9816525      2.3765507     -1.4600064      8.6943358      7.5294034      29.94043       1959.9952    
       131   0             -241.92123     -9929.225      -13029.729     -13054.577     -3703.3687     -2.1538774      2.7669312      0.26227732     8.6943358      7.5294034      29.94043       1959.9952    
       132   0             -241.92124     -9921.9826     -13024.033     -13049.284     -3692.6306     -2.240604       2.7030113     -0.067372115    8.6943358      7.5294034      29.94043       1959.9952    
       133   0             -241.92124     -9920.2476     -13021.741     -13047.918     -3691.0838     -2.4092756      2.9320183     -1.221578       8.6943358      7.5294034      29.94043       1959.9952    
       134   0             -241.92125     -9922.6877     -13023.447     -13049.237     -3695.3787     -2.6649725      3.5001131     -0.71547498     8.6943358      7.5294034      29.94043       1959.9952    
       135   0             -241.92125     -9934.5755     -13033.081     -13058.489     -3712.1569     -2.5897143      3.4015348     -0.031237895    8.6943358      7.5294034      29.94043       1959.9952    
       136   0             -241.92125     -9933.4985     -13031.661     -13057.73      -3711.1045     -2.0212585      2.3330531     -0.9876303      8.6943358      7.5294034      29.94043       1959.9952    
       137   0             -241.92125     -9932.19       -13030.168     -13056.819     -3709.5833     -1.9916415      2.3750398     -1.6669038      8.6943358      7.5294034      29.94043       1959.9952    
       138   0             -241.92125     -9927.0999     -13026.359     -13052.816     -3702.1242     -2.5618759      3.5080749     -1.3507435      8.6943358      7.5294034      29.94043       1959.9952    
       139   0             -241.92125     -9925.7938     -13025.423     -13051.829     -3700.1299     -2.5847061      3.4797917     -1.2829573      8.6943358      7.5294034      29.94043       1959.9952    
       140   0             -241.92125     -9926.357      -13025.712     -13052.329     -3701.0299     -2.3338399      2.941271      -1.5385801      8.6943358      7.5294034      29.94043       1959.9952    
       141   0             -241.92125     -9926.989      -13026.087     -13052.761     -3702.1188     -2.3221249      2.9530154     -1.6087516      8.6943358      7.5294034      29.94043       1959.9952    
       142   0             -241.92125     -9928.5489     -13027.42      -13053.912     -3704.3145     -2.4714681      3.3156374     -1.4314058      8.6943358      7.5294034      29.94043       1959.9952    
       143   0             -241.92125     -9927.8494     -13026.832     -13053.324     -3703.3922     -2.4677369      3.3179374     -1.4333411      8.6943358      7.5294034      29.94043       1959.9952    
       144   0             -241.92125     -9927.4901     -13026.451     -13053.145     -3702.8747     -2.3893101      3.1110554     -1.6259507      8.6943358      7.5294034      29.94043       1959.9952    
       145   0             -241.92125     -9926.6528     -13025.78      -13052.495     -3701.6837     -2.400517       3.1210274     -1.653113       8.6943358      7.5294034      29.94043       1959.9952    
       146   0             -241.92125     -9926.5598     -13025.742     -13052.368     -3701.5692     -2.426698       3.1995279     -1.5746817      8.6943358      7.5294034      29.94043       1959.9952    
       147   0             -241.92125     -9926.9126     -13026.018     -13052.632     -3702.0878     -2.4296821      3.2246088     -1.5521465      8.6943358      7.5294034      29.94043       1959.9952    
       148   0             -241.92125     -9927.0453     -13026.08      -13052.761     -3702.2951     -2.4219488      3.1865632     -1.6236159      8.6943358      7.5294034      29.94043       1959.9952    
       149   0             -241.92125     -9927.2583     -13026.222     -13052.926     -3702.6265     -2.4235111      3.1785839     -1.6464011      8.6943358      7.5294034      29.94043       1959.9952    
       150   0             -241.92125     -9927.0696     -13026.085     -13052.735     -3702.3881     -2.4403187      3.2241465     -1.5855372      8.6943358      7.5294034      29.94043       1959.9952    
       151   0             -241.92125     -9927.0822     -13026.099     -13052.747     -3702.4006     -2.4438652      3.2323005     -1.5817119      8.6943358      7.5294034      29.94043       1959.9952    
       152   0             -241.92125     -9927.0641     -13026.063     -13052.755     -3702.3738     -2.4310959      3.2011099     -1.6323569      8.6943358      7.5294034      29.94043       1959.9952    
       153   0             -241.92125     -9927.0432     -13026.038     -13052.739     -3702.3533     -2.4289045      3.1977181     -1.6425211      8.6943358      7.5294034      29.94043       1959.9952    
       154   0             -241.92125     -9927.0979     -13026.093     -13052.772     -3702.4294     -2.4376143      3.2181195     -1.6147328      8.6943358      7.5294034      29.94043       1959.9952    
       155   0             -241.92125     -9927.0537     -13026.061     -13052.732     -3702.3683     -2.4370829      3.216585      -1.6087988      8.6943358      7.5294034      29.94043       1959.9952    
       156   0             -241.92125     -9927.0955     -13026.087     -13052.77      -3702.4295     -2.4330278      3.2093283     -1.623726       8.6943358      7.5294034      29.94043       1959.9952    
       157   0             -241.92125     -9927.0526     -13026.043     -13052.737     -3702.3778     -2.4385676      3.2218418     -1.634142       8.6943358      7.5294034      29.94043       1959.9952    
       158   0             -241.92125     -9927.0692     -13026.058     -13052.748     -3702.4014     -2.4418603      3.2268109     -1.6288643      8.6943358      7.5294034      29.94043       1959.9952    
       159   0             -241.92125     -9927.0649     -13026.058     -13052.741     -3702.3952     -2.4386048      3.2192317     -1.6210724      8.6943358      7.5294034      29.94043       1959.9952    
       160   0             -241.92125     -9927.0605     -13026.053     -13052.739     -3702.3889     -2.4379994      3.2194443     -1.6257882      8.6943358      7.5294034      29.94043       1959.9952    
       161   0             -241.92125     -9927.0663     -13026.056     -13052.746     -3702.397      -2.4395142      3.2234484     -1.6300347      8.6943358      7.5294034      29.94043       1959.9952    
       162   0             -241.92125     -9927.0542     -13026.048     -13052.734     -3702.3809     -2.4391058      3.2215516     -1.6256646      8.6943358      7.5294034      29.94043       1959.9952    
       163   0             -241.92125     -9927.0596     -13026.053     -13052.738     -3702.3887     -2.4383676      3.2191598     -1.6239893      8.6943358      7.5294034      29.94043       1959.9952    
       164   0             -241.92125     -9927.0562     -13026.048     -13052.737     -3702.3841     -2.4393393      3.2216251     -1.6291074      8.6943358      7.5294034      29.94043       1959.9952    
       165   0             -241.92125     -9927.0604     -13026.051     -13052.74      -3702.3903     -2.440111       3.2235937     -1.6302934      8.6943358      7.5294034      29.94043       1959.9952    
       166   0             -241.92125     -9927.0638     -13026.055     -13052.741     -3702.3955     -2.4398033      3.2229066     -1.6268859      8.6943358      7.5294034      29.94043       1959.9952    
       167   0             -241.92125     -9927.0613     -13026.053     -13052.739     -3702.3921     -2.4393         3.2216249     -1.6265596      8.6943358      7.5294034      29.94043       1959.9952    
       168   0             -241.92125     -9927.0622     -13026.053     -13052.741     -3702.3931     -2.4393492      3.2217087     -1.628483       8.6943358      7.5294034      29.94043       1959.9952    
       169   0             -241.92125     -9927.0565     -13026.047     -13052.737     -3702.3853     -2.4398599      3.2229513     -1.6295433      8.6943358      7.5294034      29.94043       1959.9952    
       170   0             -241.92125     -9927.058      -13026.049     -13052.737     -3702.3875     -2.4399139      3.223052      -1.6285541      8.6943358      7.5294034      29.94043       1959.9952    
       171   0             -241.92125     -9927.0586     -13026.05      -13052.737     -3702.3885     -2.4396449      3.2224249     -1.6275976      8.6943358      7.5294034      29.94043       1959.9952    
       172   0             -241.92125     -9927.0604     -13026.051     -13052.739     -3702.3913     -2.4396821      3.2225276     -1.6279657      8.6943358      7.5294034      29.94043       1959.9952    
       173   0             -241.92125     -9927.0613     -13026.052     -13052.74      -3702.3926     -2.4399044      3.2230358     -1.6285698      8.6943358      7.5294034      29.94043       1959.9952    
       174   0             -241.92125     -9927.0605     -13026.051     -13052.739     -3702.3915     -2.4398979      3.2230095     -1.6283081      8.6943358      7.5294034      29.94043       1959.9952    
       175   0             -241.92125     -9927.06       -13026.051     -13052.738     -3702.3907     -2.4398162      3.2228262     -1.6279366      8.6943358      7.5294034      29.94043       1959.9952    
       176   0             -241.92125     -9927.059      -13026.05      -13052.738     -3702.3893     -2.4398675      3.2229338     -1.628238       8.6943358      7.5294034      29.94043       1959.9952    
       177   0             -241.92125     -9927.0594     -13026.05      -13052.738     -3702.3899     -2.4399053      3.2230078     -1.6284572      8.6943358      7.5294034      29.94043       1959.9952    
       178   0             -241.92125     -9927.0598     -13026.05      -13052.739     -3702.3906     -2.4398588      3.2229103     -1.6282711      8.6943358      7.5294034      29.94043       1959.9952    
       179   0             -241.92125     -9927.0603     -13026.051     -13052.739     -3702.3913     -2.4398439      3.2228898     -1.628165       8.6943358      7.5294034      29.94043       1959.9952    
       180   0             -241.92125     -9927.0604     -13026.051     -13052.739     -3702.3914     -2.4398795      3.2229748     -1.6282825      8.6943358      7.5294034      29.94043       1959.9952    
       181   0             -241.92125     -9927.0599     -13026.05      -13052.739     -3702.3907     -2.4399017      3.223009      -1.628378       8.6943358      7.5294034      29.94043       1959.9952    
       182   0             -241.92125     -9927.0597     -13026.05      -13052.738     -3702.3905     -2.4399003      3.2229928     -1.6283441      8.6943358      7.5294034      29.94043       1959.9952    
       183   0             -241.92125     -9927.0596     -13026.05      -13052.738     -3702.3903     -2.439891       3.2229789     -1.628281       8.6943358      7.5294034      29.94043       1959.9952    
       184   0             -241.92125     -9927.0598     -13026.05      -13052.738     -3702.3906     -2.4398899      3.222984      -1.6282852      8.6943358      7.5294034      29.94043       1959.9952    
       185   0             -241.92125     -9927.0599     -13026.05      -13052.739     -3702.3907     -2.4398945      3.2229953     -1.6283297      8.6943358      7.5294034      29.94043       1959.9952    
       186   0             -241.92125     -9927.0599     -13026.05      -13052.739     -3702.3908     -2.4398922      3.2229872     -1.6283194      8.6943358      7.5294034      29.94043       1959.9952    
       187   0             -241.92125     -9927.0599     -13026.05      -13052.739     -3702.3907     -2.4398882      3.2229764     -1.6282918      8.6943358      7.5294034      29.94043       1959.9952    
       188   0             -241.92125     -9927.0598     -13026.05      -13052.738     -3702.3906     -2.4398954      3.2229929     -1.6283096      8.6943358      7.5294034      29.94043       1959.9952    
       189   0             -241.92125     -9927.0598     -13026.05      -13052.738     -3702.3906     -2.4399006      3.223004      -1.6283247      8.6943358      7.5294034      29.94043       1959.9952    
       190   0             -241.92125     -9927.0598     -13026.05      -13052.738     -3702.3906     -2.4398981      3.2229981     -1.628318       8.6943358      7.5294034      29.94043       1959.9952    
       191   0             -241.92125     -9927.0598     -13026.05      -13052.738     -3702.3907     -2.4398961      3.2229941     -1.6283144      8.6943358      7.5294034      29.94043       1959.9952    
       192   0             -241.92125     -9927.0599     -13026.05      -13052.739     -3702.3907     -2.4398976      3.2229976     -1.6283193      8.6943358      7.5294034      29.94043       1959.9952    
       193   0             -241.92125     -9927.0598     -13026.05      -13052.738     -3702.3907     -2.4398981      3.222999      -1.6283199      8.6943358      7.5294034      29.94043       1959.9952    
       194   0             -241.92125     -9927.0598     -13026.05      -13052.738     -3702.3906     -2.4398975      3.2229981     -1.628317       8.6943358      7.5294034      29.94043       1959.9952    
       195   0             -241.92125     -9927.0598     -13026.05      -13052.738     -3702.3906     -2.4398977      3.2229978     -1.6283171      8.6943358      7.5294034      29.94043       1959.9952    
       196   0             -241.92125     -9927.0598     -13026.05      -13052.738     -3702.3906     -2.4398981      3.2229982     -1.6283194      8.6943358      7.5294034      29.94043       1959.9952    
       197   0             -241.92125     -9927.0598     -13026.05      -13052.738     -3702.3906     -2.4398982      3.2229989     -1.6283207      8.6943358      7.5294034      29.94043       1959.9952    
       198   0             -241.92125     -9927.0598     -13026.05      -13052.738     -3702.3907     -2.4398982      3.2229993     -1.6283189      8.6943358      7.5294034      29.94043       1959.9952    
       199   0             -241.92125     -9927.0598     -13026.05      -13052.738     -3702.3907     -2.4398982      3.2229992     -1.6283173      8.6943358      7.5294034      29.94043       1959.9952    
       200   0             -241.92125     -9927.0598     -13026.05      -13052.738     -3702.3906     -2.4398981      3.2229988     -1.6283186      8.6943358      7.5294034      29.94043       1959.9952    
Loop time of 0.0867018 on 48 procs for 100 steps with 60 atoms

98.5% CPU use with 48 MPI tasks x no OpenMP threads

Minimization stats:
  Stopping criterion = max iterations
  Energy initial, next-to-last, final = 
     -241.177590403387  -241.921253829083  -241.921253829083
  Force two-norm initial, final = 2.1438276 3.6299254e-09
  Force max component initial, final = 0.41425608 7.6088863e-10
  Final line search alpha, max atom move = 1 7.6088863e-10
  Iterations, force evaluations = 100 178

MPI task timing breakdown:
Section |  min time  |  avg time  |  max time  |%varavg| %total
---------------------------------------------------------------
Pair    | 2.1157e-05 | 0.0092115  | 0.022556   |   6.0 | 10.62
Neigh   | 0          | 0          | 0          |   0.0 |  0.00
Comm    | 0.0061325  | 0.018625   | 0.02861    |   4.1 | 21.48
Output  | 0.0038477  | 0.0049701  | 0.053714   |  10.1 |  5.73
Modify  | 0          | 0          | 0          |   0.0 |  0.00
Other   |            | 0.0539     |            |       | 62.16

Nlocal:           1.25 ave           3 max           0 min
Histogram: 8 0 0 23 0 0 14 0 0 3
Nghost:         180.75 ave         183 max         177 min
Histogram: 2 7 0 5 0 3 7 0 18 6
Neighs:              0 ave           0 max           0 min
Histogram: 48 0 0 0 0 0 0 0 0 0
FullNghs:           52 ave         126 max           0 min
Histogram: 8 0 0 23 0 0 14 0 0 3

Total # of neighbors = 2496
Ave neighs/atom = 41.6
Neighbor list builds = 0
Dangerous builds = 0

# Obtain new stress tensor

variable tmp equal pe
variable e1 equal ${tmp}
variable e1 equal -241.921253829083
variable tmp equal press
variable p1 equal ${tmp}
variable p1 equal -9927.05983066452
variable tmp equal pxx
variable pxx1 equal ${tmp}
variable pxx1 equal -13026.0503680276
variable tmp equal pyy
variable pyy1 equal ${tmp}
variable pyy1 equal -13052.7384793328
variable tmp equal pzz
variable pzz1 equal ${tmp}
variable pzz1 equal -3702.39064463314
variable tmp equal pxy
variable pxy1 equal ${tmp}
variable pxy1 equal -2.43989812826453
variable tmp equal pxz
variable pxz1 equal ${tmp}
variable pxz1 equal 3.22299877131353
variable tmp equal pyz
variable pyz1 equal ${tmp}
variable pyz1 equal -1.62831861161955

# Compute elastic constant from pressure tensor

variable C1pos equal ${d1}
variable C1pos equal -644330.32170734
variable C2pos equal ${d2}
variable C2pos equal -644340.7092174
variable C3pos equal ${d3}
variable C3pos equal -1574816.64509014
variable C4pos equal ${d4}
variable C4pos equal 554.553662947374
variable C5pos equal ${d5}
variable C5pos equal -1228.3388971067
variable C6pos equal ${d6}
variable C6pos equal -384.805704653942

# Combine positive and negative

variable C1${dir} equal 0.5*(${C1neg}+${C1pos})
variable C15 equal 0.5*(${C1neg}+${C1pos})
variable C15 equal 0.5*(644330.08200808+${C1pos})
variable C15 equal 0.5*(644330.08200808+-644330.32170734)
variable C2${dir} equal 0.5*(${C2neg}+${C2pos})
variable C25 equal 0.5*(${C2neg}+${C2pos})
variable C25 equal 0.5*(644340.77388308+${C2pos})
variable C25 equal 0.5*(644340.77388308+-644340.7092174)
variable C3${dir} equal 0.5*(${C3neg}+${C3pos})
variable C35 equal 0.5*(${C3neg}+${C3pos})
variable C35 equal 0.5*(1574816.46571952+${C3pos})
variable C35 equal 0.5*(1574816.46571952+-1574816.64509014)
variable C4${dir} equal 0.5*(${C4neg}+${C4pos})
variable C45 equal 0.5*(${C4neg}+${C4pos})
variable C45 equal 0.5*(-554.250487939737+${C4pos})
variable C45 equal 0.5*(-554.250487939737+554.553662947374)
variable C5${dir} equal 0.5*(${C5neg}+${C5pos})
variable C55 equal 0.5*(${C5neg}+${C5pos})
variable C55 equal 0.5*(1273.9914191002+${C5pos})
variable C55 equal 0.5*(1273.9914191002+-1228.3388971067)
variable C6${dir} equal 0.5*(${C6neg}+${C6pos})
variable C65 equal 0.5*(${C6neg}+${C6pos})
variable C65 equal 0.5*(363.159979544098+${C6pos})
variable C65 equal 0.5*(363.159979544098+-384.805704653942)

# Delete dir to make sure it is not reused

variable dir delete

# uxy Perturbation

variable dir equal 6
include displace.mod
# NOTE: This script should not need to be
# modified. See in.elastic for more info.
#
# Find which reference length to use

if "${dir} == 1" then    "variable len0 equal ${lx0}"
if "${dir} == 2" then    "variable len0 equal ${ly0}"
if "${dir} == 3" then    "variable len0 equal ${lz0}"
if "${dir} == 4" then    "variable len0 equal ${lz0}"
if "${dir} == 5" then    "variable len0 equal ${lz0}"
if "${dir} == 6" then    "variable len0 equal ${ly0}"
variable len0 equal ${ly0}
variable len0 equal 7.52940340967919

# Reset box and simulation parameters

clear
box tilt large
read_restart restart.equil
Reading restart file ...
  restart file = 24 Mar 2022, LAMMPS = 24 Mar 2022
  restoring atom style atomic from restart
  triclinic box = (0.042726577 0.037058295 0.15121177) to (8.7370624 7.5664617 30.091642) with tilt (-4.3471038 0 0)
  3 by 2 by 8 MPI processor grid
  pair style nep stores no restart info
  60 atoms
  read_restart CPU = 0.156 seconds
include potential.mod
# NOTE: This script can be modified for different pair styles
# See in.elastic for more info.

# Choose potential
#pair_style	sw
#pair_coeff * * Si.sw Si

# MTP potential
pair_style  nep
pair_coeff  * *  nep_y2026_m04_d08_h20_m24_s14_generation100000.txt  Bi Sb Te


# Setup neighbor style
neighbor 1.0 nsq
neigh_modify once no every 1 delay 0 check yes

# Setup minimization style
min_style	     cg
min_modify	     dmax ${dmax} line quadratic
min_modify	     dmax 0.01 line quadratic

# Setup output
thermo		1
thermo_style custom step temp pe press pxx pyy pzz pxy pxz pyz lx ly lz vol
thermo_modify norm no

# Negative deformation

variable delta equal -${up}*${len0}
variable delta equal -1e-06*${len0}
variable delta equal -1e-06*7.52940340967919
variable deltaxy equal -${up}*xy
variable deltaxy equal -1e-06*xy
variable deltaxz equal -${up}*xz
variable deltaxz equal -1e-06*xz
variable deltayz equal -${up}*yz
variable deltayz equal -1e-06*yz
if "${dir} == 1" then    "change_box all x delta 0 ${delta} xy delta ${deltaxy} xz delta ${deltaxz} remap units box"
if "${dir} == 2" then    "change_box all y delta 0 ${delta} yz delta ${deltayz} remap units box"
if "${dir} == 3" then    "change_box all z delta 0 ${delta} remap units box"
if "${dir} == 4" then    "change_box all yz delta ${delta} remap units box"
if "${dir} == 5" then    "change_box all xz delta ${delta} remap units box"
if "${dir} == 6" then    "change_box all xy delta ${delta} remap units box"
change_box all xy delta ${delta} remap units box
change_box all xy delta -7.52940340967919e-06 remap units box
Changing box ...
  triclinic box = (0.042726577 0.037058295 0.15121177) to (8.7370624 7.5664617 30.091642) with tilt (-4.3471113 0 0)

# Relax atoms positions

minimize ${etol} ${ftol} ${maxiter} ${maxeval}
minimize 0 ${ftol} ${maxiter} ${maxeval}
minimize 0 1e-18 ${maxiter} ${maxeval}
minimize 0 1e-18 100 ${maxeval}
minimize 0 1e-18 100 1000
Neighbor list info ...
  update every 1 steps, delay 0 steps, check yes
  max neighbors/atom: 2000, page size: 100000
  master list distance cutoff = 7
  ghost atom cutoff = 7
  1 neighbor lists, perpetual/occasional/extra = 1 0 0
  (1) pair nep, perpetual
      attributes: full, newton on
      pair build: full/nsq
      stencil: none
      bin: none
Per MPI rank memory allocation (min/avg/max) = 4.085 | 4.085 | 4.085 Mbytes
   Step          Temp          PotEng         Press           Pxx            Pyy            Pzz            Pxy            Pxz            Pyz             Lx             Ly             Lz           Volume    
       100   0             -241.17759     -19471.994     -19469.354     -19496.112     -19450.515     -5.9924098     -9.2518644      4.0003422      8.6943358      7.5294034      29.94043       1959.9952    
       101   0             -241.28211     -19387.944     -19468.974     -19488.44      -19206.42      -3.8260884     -11.132082     -2.1070182      8.6943358      7.5294034      29.94043       1959.9952    
       102   0             -241.37312     -19219.607     -19398.866     -19412.31      -18847.643     -2.8007893     -12.435646     -5.5660083      8.6943358      7.5294034      29.94043       1959.9952    
       103   0             -241.45123     -18970.158     -19265.723     -19274.262     -18370.488     -2.6513747     -13.248961     -6.7705835      8.6943358      7.5294034      29.94043       1959.9952    
       104   0             -241.51871     -18646.239     -19077.439     -19081.963     -17779.315     -3.0803147     -13.694362     -6.2159435      8.6943358      7.5294034      29.94043       1959.9952    
       105   0             -241.5775      -18261.349     -18841.44      -18842.669     -17099.937     -3.8212732     -13.880932     -4.356437       8.6943358      7.5294034      29.94043       1959.9952    
       106   0             -241.62908     -17824.284     -18564.135     -18562.673     -16346.044     -4.6490336     -13.906053     -1.6130296      8.6943358      7.5294034      29.94043       1959.9952    
       107   0             -241.67461     -17342.892     -18251.34      -18247.714     -15529.624     -5.3850836     -13.852579      1.632139       8.6943358      7.5294034      29.94043       1959.9952    
       108   0             -241.71499     -16824.449     -17908.277     -17902.979     -14662.093     -5.9017789     -13.785441      5.0436813      8.6943358      7.5294034      29.94043       1959.9952    
       109   0             -241.75089     -16275.197     -17539.5       -17533.006     -13753.084     -6.1222672     -13.748242      8.343252       8.6943358      7.5294034      29.94043       1959.9952    
       110   0             -241.78279     -15700.443     -17148.841     -17141.631     -12810.858     -6.0165056     -13.760562      11.316461      8.6943358      7.5294034      29.94043       1959.9952    
       111   0             -241.81105     -15104.461     -16739.368     -16731.926     -11842.089     -5.5940767     -13.81682       13.814585      8.6943358      7.5294034      29.94043       1959.9952    
       112   0             -241.83589     -14490.472     -16313.384     -16306.207     -10851.826     -4.8951763     -13.886794      15.749984      8.6943358      7.5294034      29.94043       1959.9952    
       113   0             -241.85748     -13860.723     -15872.489     -15866.086     -9843.5954     -3.9813732     -13.916922      17.08631       8.6943358      7.5294034      29.94043       1959.9952    
       114   0             -241.87586     -13216.641     -15417.69      -15412.587     -8819.6462     -2.9277662     -13.830356      17.825638      8.6943358      7.5294034      29.94043       1959.9952    
       115   0             -241.89107     -12559.104     -14949.597     -14946.349     -7781.3664     -1.8183784     -13.522037      17.99465       8.6943358      7.5294034      29.94043       1959.9952    
       116   0             -241.90305     -11888.951     -14468.8       -14467.998     -6730.0563     -0.74787124    -12.841333      17.630949      8.6943358      7.5294034      29.94043       1959.9952    
       117   0             -241.91172     -11208.251     -13976.809     -13979.11      -5668.8341      0.16242405    -11.543212      16.767574      8.6943358      7.5294034      29.94043       1959.9952    
       118   0             -241.917       -10524.706     -13479.35      -13485.509     -4609.2595      0.70452649    -9.1416048      15.40073       8.6943358      7.5294034      29.94043       1959.9952    
       119   0             -241.91896     -9877.1508     -13005.347     -13016.326     -3609.7786      0.30007021    -4.2839047      13.311435      8.6943358      7.5294034      29.94043       1959.9952    
       120   0             -241.91955     -9922.245      -13038.763     -13051.618     -3676.3547     -1.552308       0.50579986     11.308092      8.6943358      7.5294034      29.94043       1959.9952    
       121   0             -241.91993     -9908.6999     -13026.943     -13042.263     -3656.8934     -0.99291835    -0.90063094     8.6102976      8.6943358      7.5294034      29.94043       1959.9952    
       122   0             -241.92011     -9882.9588     -13003.363     -13018.805     -3626.7078     -2.8130312      4.7150276      7.0552127      8.6943358      7.5294034      29.94043       1959.9952    
       123   0             -241.92059     -9991.5724     -13088.567     -13105.151     -3780.9999     -4.1933536      10.74203       5.2044072      8.6943358      7.5294034      29.94043       1959.9952    
       124   0             -241.92087     -9954.464      -13057.221     -13077.351     -3728.8205     -1.5626257      3.1458844      4.1168094      8.6943358      7.5294034      29.94043       1959.9952    
       125   0             -241.92099     -9930.0839     -13034.924     -13061.634     -3693.6936     -0.95917705    -0.58712411    -1.0953826      8.6943358      7.5294034      29.94043       1959.9952    
       126   0             -241.92108     -9897.5028     -13007.524     -13033.914     -3651.07       -2.818596       4.0859448     -3.2367438      8.6943358      7.5294034      29.94043       1959.9952    
       127   0             -241.92113     -9889.536      -13001.596     -13024.649     -3642.3626     -2.9213774      5.2970726     -0.17909573     8.6943358      7.5294034      29.94043       1959.9952    
       128   0             -241.92117     -9927.9538     -13032.431     -13054.978     -3696.4526     -1.9695308      3.1787367      2.0681859      8.6943358      7.5294034      29.94043       1959.9952    
       129   0             -241.92121     -9937.2824     -13036.233     -13061.797     -3713.8172     -1.6645028      2.0906229     -0.58997905     8.6943358      7.5294034      29.94043       1959.9952    
       130   0             -241.92122     -9947.1082     -13042.998     -13069.188     -3729.1385     -1.8242403      2.4987016     -1.4592449      8.6943358      7.5294034      29.94043       1959.9952    
       131   0             -241.92123     -9929.2248     -13029.729     -13054.577     -3703.3685     -1.9955289      2.8868979      0.26306402     8.6943358      7.5294034      29.94043       1959.9952    
       132   0             -241.92124     -9921.9824     -13024.034     -13049.283     -3692.6305     -2.0823206      2.8232115     -0.066610159    8.6943358      7.5294034      29.94043       1959.9952    
       133   0             -241.92124     -9920.2478     -13021.741     -13047.918     -3691.0841     -2.2513758      3.0532006     -1.2208442      8.6943358      7.5294034      29.94043       1959.9952    
       134   0             -241.92125     -9922.688      -13023.448     -13049.237     -3695.3792     -2.5069038      3.6208321     -0.71470322     8.6943358      7.5294034      29.94043       1959.9952    
       135   0             -241.92125     -9934.5759     -13033.082     -13058.489     -3712.1577     -2.4314301      3.5216303     -0.030422414    8.6943358      7.5294034      29.94043       1959.9952    
       136   0             -241.92125     -9933.4989     -13031.662     -13057.73      -3711.1051     -1.8632721      2.4538846     -0.98684022     8.6943358      7.5294034      29.94043       1959.9952    
       137   0             -241.92125     -9932.1902     -13030.168     -13056.818     -3709.5837     -1.8337591      2.4961772     -1.6661415      8.6943358      7.5294034      29.94043       1959.9952    
       138   0             -241.92125     -9927.1        -13026.359     -13052.816     -3702.1245     -2.4036622      3.6284532     -1.3499608      8.6943358      7.5294034      29.94043       1959.9952    
       139   0             -241.92125     -9925.7939     -13025.423     -13051.828     -3700.1302     -2.426365       3.599884      -1.2821622      8.6943358      7.5294034      29.94043       1959.9952    
       140   0             -241.92125     -9926.3571     -13025.712     -13052.329     -3701.0302     -2.175532       3.0614722     -1.5377904      8.6943358      7.5294034      29.94043       1959.9952    
       141   0             -241.92125     -9926.9892     -13026.088     -13052.761     -3702.1192     -2.1638168      3.073237      -1.6079628      8.6943358      7.5294034      29.94043       1959.9952    
       142   0             -241.92125     -9928.5492     -13027.42      -13053.912     -3704.3151     -2.3130938      3.4356963     -1.4306107      8.6943358      7.5294034      29.94043       1959.9952    
       143   0             -241.92125     -9927.8497     -13026.833     -13053.323     -3703.3927     -2.3093386      3.4379257     -1.4325429      8.6943358      7.5294034      29.94043       1959.9952    
       144   0             -241.92125     -9927.4903     -13026.452     -13053.144     -3702.8752     -2.2309613      3.231157      -1.6251572      8.6943358      7.5294034      29.94043       1959.9952    
       145   0             -241.92125     -9926.653      -13025.781     -13052.494     -3701.6841     -2.2421975      3.2412027     -1.6523218      8.6943358      7.5294034      29.94043       1959.9952    
       146   0             -241.92125     -9926.56       -13025.743     -13052.367     -3701.5696     -2.2683495      3.3196367     -1.5738894      8.6943358      7.5294034      29.94043       1959.9952    
       147   0             -241.92125     -9926.9128     -13026.019     -13052.631     -3702.0883     -2.2712803      3.3445951     -1.5513537      8.6943358      7.5294034      29.94043       1959.9952    
       148   0             -241.92125     -9927.0455     -13026.08      -13052.761     -3702.2955     -2.2635552      3.3065766     -1.6228231      8.6943358      7.5294034      29.94043       1959.9952    
       149   0             -241.92125     -9927.2585     -13026.223     -13052.926     -3702.6269     -2.2651366      3.2986479     -1.6456087      8.6943358      7.5294034      29.94043       1959.9952    
       150   0             -241.92125     -9927.0698     -13026.086     -13052.735     -3702.3886     -2.2819302      3.344174      -1.5847433      8.6943358      7.5294034      29.94043       1959.9952    
       151   0             -241.92125     -9927.0824     -13026.099     -13052.747     -3702.401      -2.2854696      3.3523071     -1.5809174      8.6943358      7.5294034      29.94043       1959.9952    
       152   0             -241.92125     -9927.0643     -13026.064     -13052.755     -3702.3742     -2.2727136      3.3211474     -1.6315634      8.6943358      7.5294034      29.94043       1959.9952    
       153   0             -241.92125     -9927.0434     -13026.038     -13052.738     -3702.3538     -2.2705294      3.3177729     -1.641728       8.6943358      7.5294034      29.94043       1959.9952    
       154   0             -241.92125     -9927.0981     -13026.093     -13052.771     -3702.4298     -2.279235       3.3381637     -1.6139398      8.6943358      7.5294034      29.94043       1959.9952    
       155   0             -241.92125     -9927.0539     -13026.061     -13052.732     -3702.3687     -2.2786985      3.3366169     -1.6080052      8.6943358      7.5294034      29.94043       1959.9952    
       156   0             -241.92125     -9927.0958     -13026.088     -13052.769     -3702.4299     -2.274642       3.3293582     -1.6229318      8.6943358      7.5294034      29.94043       1959.9952    
       157   0             -241.92125     -9927.0528     -13026.044     -13052.736     -3702.3782     -2.2801846      3.3418793     -1.6333482      8.6943358      7.5294034      29.94043       1959.9952    
       158   0             -241.92125     -9927.0694     -13026.059     -13052.748     -3702.4018     -2.2834764      3.3468462     -1.6280706      8.6943358      7.5294034      29.94043       1959.9952    
       159   0             -241.92125     -9927.0651     -13026.059     -13052.741     -3702.3956     -2.2802184      3.3392602     -1.6202784      8.6943358      7.5294034      29.94043       1959.9952    
       160   0             -241.92125     -9927.0607     -13026.054     -13052.739     -3702.3894     -2.2796151      3.3394778     -1.6249941      8.6943358      7.5294034      29.94043       1959.9952    
       161   0             -241.92125     -9927.0665     -13026.057     -13052.745     -3702.3974     -2.2811324      3.3434879     -1.6292407      8.6943358      7.5294034      29.94043       1959.9952    
       162   0             -241.92125     -9927.0544     -13026.048     -13052.733     -3702.3813     -2.2807227      3.3415879     -1.6248708      8.6943358      7.5294034      29.94043       1959.9952    
       163   0             -241.92125     -9927.0598     -13026.053     -13052.737     -3702.3891     -2.279983       3.3391924     -1.6231955      8.6943358      7.5294034      29.94043       1959.9952    
       164   0             -241.92125     -9927.0564     -13026.048     -13052.736     -3702.3845     -2.2809554      3.3416596     -1.6283135      8.6943358      7.5294034      29.94043       1959.9952    
       165   0             -241.92125     -9927.0606     -13026.051     -13052.74      -3702.3908     -2.2817275      3.3436295     -1.6294995      8.6943358      7.5294034      29.94043       1959.9952    
       166   0             -241.92125     -9927.064      -13026.055     -13052.741     -3702.3959     -2.2814192      3.3429409     -1.626092       8.6943358      7.5294034      29.94043       1959.9952    
       167   0             -241.92125     -9927.0615     -13026.053     -13052.739     -3702.3925     -2.2809156      3.3416583     -1.6257656      8.6943358      7.5294034      29.94043       1959.9952    
       168   0             -241.92125     -9927.0624     -13026.053     -13052.741     -3702.3935     -2.2809651      3.3417428     -1.627689       8.6943358      7.5294034      29.94043       1959.9952    
       169   0             -241.92125     -9927.0567     -13026.048     -13052.736     -3702.3858     -2.2814763      3.3429866     -1.6287493      8.6943358      7.5294034      29.94043       1959.9952    
       170   0             -241.92125     -9927.0583     -13026.05      -13052.737     -3702.388      -2.2815301      3.3430869     -1.6277601      8.6943358      7.5294034      29.94043       1959.9952    
       171   0             -241.92125     -9927.0588     -13026.05      -13052.737     -3702.389      -2.2812607      3.3424588     -1.6268036      8.6943358      7.5294034      29.94043       1959.9952    
       172   0             -241.92125     -9927.0606     -13026.052     -13052.739     -3702.3917     -2.2812979      3.3425615     -1.6271716      8.6943358      7.5294034      29.94043       1959.9952    
       173   0             -241.92125     -9927.0616     -13026.052     -13052.74      -3702.3931     -2.2815203      3.34307       -1.6277758      8.6943358      7.5294034      29.94043       1959.9952    
       174   0             -241.92125     -9927.0607     -13026.051     -13052.739     -3702.3919     -2.2815137      3.3430436     -1.6275141      8.6943358      7.5294034      29.94043       1959.9952    
       175   0             -241.92125     -9927.0602     -13026.051     -13052.738     -3702.3911     -2.2814319      3.34286       -1.6271426      8.6943358      7.5294034      29.94043       1959.9952    
       176   0             -241.92125     -9927.0592     -13026.05      -13052.738     -3702.3897     -2.2814832      3.3429677     -1.627444       8.6943358      7.5294034      29.94043       1959.9952    
       177   0             -241.92125     -9927.0596     -13026.051     -13052.738     -3702.3904     -2.2815212      3.3430419     -1.6276632      8.6943358      7.5294034      29.94043       1959.9952    
       178   0             -241.92125     -9927.0601     -13026.051     -13052.738     -3702.391      -2.2814746      3.3429443     -1.6274771      8.6943358      7.5294034      29.94043       1959.9952    
       179   0             -241.92125     -9927.0605     -13026.051     -13052.739     -3702.3917     -2.2814597      3.3429237     -1.627371       8.6943358      7.5294034      29.94043       1959.9952    
       180   0             -241.92125     -9927.0606     -13026.051     -13052.739     -3702.3918     -2.2814953      3.3430087     -1.6274885      8.6943358      7.5294034      29.94043       1959.9952    
       181   0             -241.92125     -9927.0601     -13026.051     -13052.738     -3702.3911     -2.2815175      3.343043      -1.627584       8.6943358      7.5294034      29.94043       1959.9952    
       182   0             -241.92125     -9927.0599     -13026.051     -13052.738     -3702.3909     -2.2815161      3.3430267     -1.6275501      8.6943358      7.5294034      29.94043       1959.9952    
       183   0             -241.92125     -9927.0598     -13026.051     -13052.738     -3702.3908     -2.2815067      3.3430128     -1.6274869      8.6943358      7.5294034      29.94043       1959.9952    
       184   0             -241.92125     -9927.06       -13026.051     -13052.738     -3702.391      -2.2815057      3.3430179     -1.6274912      8.6943358      7.5294034      29.94043       1959.9952    
       185   0             -241.92125     -9927.0601     -13026.051     -13052.738     -3702.3912     -2.2815103      3.3430293     -1.6275357      8.6943358      7.5294034      29.94043       1959.9952    
       186   0             -241.92125     -9927.0601     -13026.051     -13052.738     -3702.3912     -2.281508       3.3430212     -1.6275253      8.6943358      7.5294034      29.94043       1959.9952    
       187   0             -241.92125     -9927.0601     -13026.051     -13052.738     -3702.3911     -2.281504       3.3430103     -1.6274978      8.6943358      7.5294034      29.94043       1959.9952    
       188   0             -241.92125     -9927.06       -13026.051     -13052.738     -3702.391      -2.2815112      3.3430268     -1.6275156      8.6943358      7.5294034      29.94043       1959.9952    
       189   0             -241.92125     -9927.06       -13026.051     -13052.738     -3702.391      -2.2815164      3.3430379     -1.6275306      8.6943358      7.5294034      29.94043       1959.9952    
       190   0             -241.92125     -9927.06       -13026.051     -13052.738     -3702.391      -2.2815139      3.343032      -1.627524       8.6943358      7.5294034      29.94043       1959.9952    
       191   0             -241.92125     -9927.0601     -13026.051     -13052.738     -3702.3911     -2.2815119      3.343028      -1.6275204      8.6943358      7.5294034      29.94043       1959.9952    
       192   0             -241.92125     -9927.0601     -13026.051     -13052.738     -3702.3911     -2.2815134      3.3430315     -1.6275253      8.6943358      7.5294034      29.94043       1959.9952    
       193   0             -241.92125     -9927.0601     -13026.051     -13052.738     -3702.3911     -2.2815138      3.3430329     -1.6275259      8.6943358      7.5294034      29.94043       1959.9952    
       194   0             -241.92125     -9927.06       -13026.051     -13052.738     -3702.3911     -2.2815133      3.343032      -1.627523       8.6943358      7.5294034      29.94043       1959.9952    
       195   0             -241.92125     -9927.06       -13026.051     -13052.738     -3702.3911     -2.2815135      3.3430318     -1.6275231      8.6943358      7.5294034      29.94043       1959.9952    
       196   0             -241.92125     -9927.06       -13026.051     -13052.738     -3702.3911     -2.2815139      3.3430321     -1.6275254      8.6943358      7.5294034      29.94043       1959.9952    
       197   0             -241.92125     -9927.06       -13026.051     -13052.738     -3702.3911     -2.2815139      3.3430328     -1.6275266      8.6943358      7.5294034      29.94043       1959.9952    
       198   0             -241.92125     -9927.0601     -13026.051     -13052.738     -3702.3911     -2.2815139      3.3430332     -1.6275248      8.6943358      7.5294034      29.94043       1959.9952    
       199   0             -241.92125     -9927.06       -13026.051     -13052.738     -3702.3911     -2.281514       3.3430331     -1.6275232      8.6943358      7.5294034      29.94043       1959.9952    
       200   0             -241.92125     -9927.06       -13026.051     -13052.738     -3702.3911     -2.2815139      3.3430327     -1.6275246      8.6943358      7.5294034      29.94043       1959.9952    
Loop time of 0.0832076 on 48 procs for 100 steps with 60 atoms

98.4% CPU use with 48 MPI tasks x no OpenMP threads

Minimization stats:
  Stopping criterion = max iterations
  Energy initial, next-to-last, final = 
     -241.177590422267  -241.921253827955  -241.921253827955
  Force two-norm initial, final = 2.1438276 3.6300979e-09
  Force max component initial, final = 0.41425608 7.6096268e-10
  Final line search alpha, max atom move = 1 7.6096268e-10
  Iterations, force evaluations = 100 178

MPI task timing breakdown:
Section |  min time  |  avg time  |  max time  |%varavg| %total
---------------------------------------------------------------
Pair    | 2.1929e-05 | 0.0091864  | 0.022146   |   6.1 | 11.04
Neigh   | 0          | 0          | 0          |   0.0 |  0.00
Comm    | 0.0061676  | 0.018876   | 0.028408   |   4.1 | 22.69
Output  | 0.0036654  | 0.004717   | 0.05009    |   9.6 |  5.67
Modify  | 0          | 0          | 0          |   0.0 |  0.00
Other   |            | 0.05043    |            |       | 60.61

Nlocal:           1.25 ave           3 max           0 min
Histogram: 8 0 0 23 0 0 14 0 0 3
Nghost:         180.75 ave         183 max         177 min
Histogram: 2 7 0 5 0 3 7 0 18 6
Neighs:              0 ave           0 max           0 min
Histogram: 48 0 0 0 0 0 0 0 0 0
FullNghs:           52 ave         126 max           0 min
Histogram: 8 0 0 23 0 0 14 0 0 3

Total # of neighbors = 2496
Ave neighs/atom = 41.6
Neighbor list builds = 0
Dangerous builds = 0

# Obtain new stress tensor

variable tmp equal pxx
variable pxx1 equal ${tmp}
variable pxx1 equal -13026.0508694981
variable tmp equal pyy
variable pyy1 equal ${tmp}
variable pyy1 equal -13052.7381782902
variable tmp equal pzz
variable pzz1 equal ${tmp}
variable pzz1 equal -3702.39107993743
variable tmp equal pxy
variable pxy1 equal ${tmp}
variable pxy1 equal -2.28151389752639
variable tmp equal pxz
variable pxz1 equal ${tmp}
variable pxz1 equal 3.34303268812021
variable tmp equal pyz
variable pyz1 equal ${tmp}
variable pyz1 equal -1.62752459052975

# Compute elastic constant from pressure tensor

variable C1neg equal ${d1}
variable C1neg equal 644330.27156029
variable C2neg equal ${d2}
variable C2neg equal 644340.73932166
variable C3neg equal ${d3}
variable C3neg equal 1574816.60155971
variable C4neg equal ${d4}
variable C4neg equal -554.474260838394
variable C5neg equal ${d5}
variable C5neg equal 1240.34228878736
variable C6neg equal ${d6}
variable C6neg equal 400.644127727756

# Reset box and simulation parameters

clear
box tilt large
read_restart restart.equil
Reading restart file ...
  restart file = 24 Mar 2022, LAMMPS = 24 Mar 2022
  restoring atom style atomic from restart
  triclinic box = (0.042726577 0.037058295 0.15121177) to (8.7370624 7.5664617 30.091642) with tilt (-4.3471038 0 0)
  3 by 2 by 8 MPI processor grid
  pair style nep stores no restart info
  60 atoms
  read_restart CPU = 0.017 seconds
include potential.mod
# NOTE: This script can be modified for different pair styles
# See in.elastic for more info.

# Choose potential
#pair_style	sw
#pair_coeff * * Si.sw Si

# MTP potential
pair_style  nep
pair_coeff  * *  nep_y2026_m04_d08_h20_m24_s14_generation100000.txt  Bi Sb Te


# Setup neighbor style
neighbor 1.0 nsq
neigh_modify once no every 1 delay 0 check yes

# Setup minimization style
min_style	     cg
min_modify	     dmax ${dmax} line quadratic
min_modify	     dmax 0.01 line quadratic

# Setup output
thermo		1
thermo_style custom step temp pe press pxx pyy pzz pxy pxz pyz lx ly lz vol
thermo_modify norm no

# Positive deformation

variable delta equal ${up}*${len0}
variable delta equal 1e-06*${len0}
variable delta equal 1e-06*7.52940340967919
variable deltaxy equal ${up}*xy
variable deltaxy equal 1e-06*xy
variable deltaxz equal ${up}*xz
variable deltaxz equal 1e-06*xz
variable deltayz equal ${up}*yz
variable deltayz equal 1e-06*yz
if "${dir} == 1" then    "change_box all x delta 0 ${delta} xy delta ${deltaxy} xz delta ${deltaxz} remap units box"
if "${dir} == 2" then    "change_box all y delta 0 ${delta} yz delta ${deltayz} remap units box"
if "${dir} == 3" then    "change_box all z delta 0 ${delta} remap units box"
if "${dir} == 4" then    "change_box all yz delta ${delta} remap units box"
if "${dir} == 5" then    "change_box all xz delta ${delta} remap units box"
if "${dir} == 6" then    "change_box all xy delta ${delta} remap units box"
change_box all xy delta ${delta} remap units box
change_box all xy delta 7.52940340967919e-06 remap units box
Changing box ...
  triclinic box = (0.042726577 0.037058295 0.15121177) to (8.7370624 7.5664617 30.091642) with tilt (-4.3470962 0 0)

# Relax atoms positions

minimize ${etol} ${ftol} ${maxiter} ${maxeval}
minimize 0 ${ftol} ${maxiter} ${maxeval}
minimize 0 1e-18 ${maxiter} ${maxeval}
minimize 0 1e-18 100 ${maxeval}
minimize 0 1e-18 100 1000
Neighbor list info ...
  update every 1 steps, delay 0 steps, check yes
  max neighbors/atom: 2000, page size: 100000
  master list distance cutoff = 7
  ghost atom cutoff = 7
  1 neighbor lists, perpetual/occasional/extra = 1 0 0
  (1) pair nep, perpetual
      attributes: full, newton on
      pair build: full/nsq
      stencil: none
      bin: none
Per MPI rank memory allocation (min/avg/max) = 4.085 | 4.085 | 4.085 Mbytes
   Step          Temp          PotEng         Press           Pxx            Pyy            Pzz            Pxy            Pxz            Pyz             Lx             Ly             Lz           Volume    
       100   0             -241.17759     -19471.994     -19469.354     -19496.112     -19450.515     -6.6496409     -8.7361402      4.0002853      8.6943358      7.5294034      29.94043       1959.9952    
       101   0             -241.28211     -19387.944     -19468.974     -19488.44      -19206.42      -4.4791864     -10.630783     -2.1070766      8.6943358      7.5294034      29.94043       1959.9952    
       102   0             -241.37312     -19219.607     -19398.866     -19412.311     -18847.643     -3.4499676     -11.948178     -5.5660671      8.6943358      7.5294034      29.94043       1959.9952    
       103   0             -241.45123     -18970.158     -19265.723     -19274.262     -18370.488     -3.2968062     -12.774633     -6.770639       8.6943358      7.5294034      29.94043       1959.9952    
       104   0             -241.51871     -18646.239     -19077.439     -19081.963     -17779.315     -3.7220836     -13.232616     -6.2159919      8.6943358      7.5294034      29.94043       1959.9952    
       105   0             -241.5775      -18261.349     -18841.44      -18842.669     -17099.937     -4.4593982     -13.431321     -4.3564738      8.6943358      7.5294034      29.94043       1959.9952    
       106   0             -241.62908     -17824.284     -18564.135     -18562.673     -16346.044     -5.283486      -13.468214     -1.6130501      8.6943358      7.5294034      29.94043       1959.9952    
       107   0             -241.67461     -17342.892     -18251.34      -18247.714     -15529.624     -6.0157973     -13.42622       1.6321395      8.6943358      7.5294034      29.94043       1959.9952    
       108   0             -241.71499     -16824.449     -17908.277     -17902.979     -14662.092     -6.5286516     -13.370343      5.0437074      8.6943358      7.5294034      29.94043       1959.9952    
       109   0             -241.75089     -16275.197     -17539.5       -17533.006     -13753.084     -6.7451547     -13.344274      8.3433085      8.6943358      7.5294034      29.94043       1959.9952    
       110   0             -241.78279     -15700.443     -17148.841     -17141.631     -12810.857     -6.6352101     -13.367709      11.316552      8.6943358      7.5294034      29.94043       1959.9952    
       111   0             -241.81105     -15104.461     -16739.368     -16731.926     -11842.089     -6.2083283     -13.435221      13.814717      8.6943358      7.5294034      29.94043       1959.9952    
       112   0             -241.83589     -14490.472     -16313.384     -16306.207     -10851.826     -5.504608      -13.51679       15.750162      8.6943358      7.5294034      29.94043       1959.9952    
       113   0             -241.85748     -13860.723     -15872.489     -15866.086     -9843.5952     -4.5854869     -13.559123      17.086541      8.6943358      7.5294034      29.94043       1959.9952    
       114   0             -241.87586     -13216.641     -15417.69      -15412.587     -8819.6461     -3.5258841     -13.485733      17.825931      8.6943358      7.5294034      29.94043       1959.9952    
       115   0             -241.89107     -12559.104     -14949.598     -14946.348     -7781.3663     -2.4095711     -13.19206       17.995016      8.6943358      7.5294034      29.94043       1959.9952    
       116   0             -241.90305     -11888.951     -14468.8       -14467.998     -6730.0561     -1.3308378     -12.528196      17.631404      8.6943358      7.5294034      29.94043       1959.9952    
       117   0             -241.91172     -11208.251     -13976.809     -13979.11      -5668.8339     -0.41042425    -11.250251      16.768144      8.6943358      7.5294034      29.94043       1959.9952    
       118   0             -241.917       -10524.706     -13479.351     -13485.509     -4609.2593      0.14476713    -8.8742311      15.40146       8.6943358      7.5294034      29.94043       1959.9952    
       119   0             -241.91896     -9877.1508     -13005.348     -13016.326     -3609.7784     -0.24104333    -4.0525174      13.312433      8.6943358      7.5294034      29.94043       1959.9952    
       120   0             -241.91955     -9922.2448     -13038.763     -13051.617     -3676.3541     -2.0836873      0.71832067     11.309333      8.6943358      7.5294034      29.94043       1959.9952    
       121   0             -241.91993     -9908.7015     -13026.945     -13042.264     -3656.8955     -1.5303953     -0.6759965      8.6114631      8.6943358      7.5294034      29.94043       1959.9952    
       122   0             -241.92011     -9882.959      -13003.364     -13018.805     -3626.7079     -3.3462564      4.9304783      7.0565191      8.6943358      7.5294034      29.94043       1959.9952    
       123   0             -241.92059     -9991.5697     -13088.566     -13105.148     -3780.9957     -4.7195036      10.94291       5.205877       8.6943358      7.5294034      29.94043       1959.9952    
       124   0             -241.92087     -9954.4624     -13057.22      -13077.349     -3728.8178     -2.0928615      3.3569306      4.1180701      8.6943358      7.5294034      29.94043       1959.9952    
       125   0             -241.92099     -9930.0843     -13034.925     -13061.634     -3693.6939     -1.4941704     -0.36591646    -1.0942289      8.6943358      7.5294034      29.94043       1959.9952    
       126   0             -241.92108     -9897.5042     -13007.526     -13033.915     -3651.0719     -3.35372        4.3058503     -3.2353968      8.6943358      7.5294034      29.94043       1959.9952    
       127   0             -241.92113     -9889.5374     -13001.598     -13024.65      -3642.3646     -3.4564931      5.5165325     -0.17761868     8.6943358      7.5294034      29.94043       1959.9952    
       128   0             -241.92117     -9927.955      -13032.432     -13054.979     -3696.4542     -2.5059723      3.4015412      2.0695646      8.6943358      7.5294034      29.94043       1959.9952    
       129   0             -241.92121     -9937.2832     -13036.235     -13061.797     -3713.8181     -2.2012968      2.3146354     -0.58875697     8.6943358      7.5294034      29.94043       1959.9952    
       130   0             -241.92122     -9947.1086     -13042.999     -13069.188     -3729.139      -2.3596973      2.7197047     -1.4579483      8.6943358      7.5294034      29.94043       1959.9952    
       131   0             -241.92123     -9929.2252     -13029.73      -13054.576     -3703.3689     -2.5289599      3.1033731      0.26452914     8.6943358      7.5294034      29.94043       1959.9952    
       132   0             -241.92124     -9921.9829     -13024.035     -13049.283     -3692.631      -2.6158475      3.0401417     -0.065213418    8.6943358      7.5294034      29.94043       1959.9952    
       133   0             -241.92124     -9920.2485     -13021.743     -13047.918     -3691.0851     -2.7857021      3.2721275     -1.2195601      8.6943358      7.5294034      29.94043       1959.9952    
       134   0             -241.92125     -9922.6888     -13023.449     -13049.237     -3695.3803     -3.0408742      3.8387895     -0.71329542     8.6943358      7.5294034      29.94043       1959.9952    
       135   0             -241.92125     -9934.5769     -13033.083     -13058.489     -3712.1589     -2.9649194      3.7382588     -0.028862632    8.6943358      7.5294034      29.94043       1959.9952    
       136   0             -241.92125     -9933.4997     -13031.663     -13057.73      -3711.1061     -2.3973951      2.6721108     -0.98539744     8.6943358      7.5294034      29.94043       1959.9952    
       137   0             -241.92125     -9932.1909     -13030.17      -13056.818     -3709.5846     -2.3680922      2.7150272     -1.6647939      8.6943358      7.5294034      29.94043       1959.9952    
       138   0             -241.92125     -9927.1007     -13026.361     -13052.816     -3702.1253     -2.937279       3.8456743     -1.3485457      8.6943358      7.5294034      29.94043       1959.9952    
       139   0             -241.92125     -9925.7946     -13025.425     -13051.828     -3700.131      -2.959696       3.8164745     -1.2807078      8.6943358      7.5294034      29.94043       1959.9952    
       140   0             -241.92125     -9926.3579     -13025.713     -13052.329     -3701.0311     -2.708928       3.2782841     -1.5363499      8.6943358      7.5294034      29.94043       1959.9952    
       141   0             -241.92125     -9926.99       -13026.089     -13052.761     -3702.1202     -2.6972142      3.2901004     -1.6065343      8.6943358      7.5294034      29.94043       1959.9952    
       142   0             -241.92125     -9928.5499     -13027.422     -13053.912     -3704.316      -2.8463452      3.6522033     -1.4291669      8.6943358      7.5294034      29.94043       1959.9952    
       143   0             -241.92125     -9927.8505     -13026.834     -13053.323     -3703.3936     -2.8425404      3.6542863     -1.4310822      8.6943358      7.5294034      29.94043       1959.9952    
       144   0             -241.92125     -9927.4911     -13026.453     -13053.144     -3702.8761     -2.7642673      3.4477547     -1.6237074      8.6943358      7.5294034      29.94043       1959.9952    
       145   0             -241.92125     -9926.6538     -13025.782     -13052.494     -3701.685      -2.7755679      3.4579678     -1.650888       8.6943358      7.5294034      29.94043       1959.9952    
       146   0             -241.92125     -9926.5607     -13025.744     -13052.367     -3701.5705     -2.8016591      3.5362649     -1.5724492      8.6943358      7.5294034      29.94043       1959.9952    
       147   0             -241.92125     -9926.9136     -13026.02      -13052.631     -3702.0892     -2.8044747      3.5609578     -1.5498997      8.6943358      7.5294034      29.94043       1959.9952    
       148   0             -241.92125     -9927.0462     -13026.082     -13052.761     -3702.2964     -2.7967624      3.5229876     -1.6213777      8.6943358      7.5294034      29.94043       1959.9952    
       149   0             -241.92125     -9927.2592     -13026.224     -13052.926     -3702.6279     -2.7983805      3.5151606     -1.6441728      8.6943358      7.5294034      29.94043       1959.9952    
       150   0             -241.92125     -9927.0706     -13026.087     -13052.735     -3702.3895     -2.8151467      3.5606169     -1.5832975      8.6943358      7.5294034      29.94043       1959.9952    
       151   0             -241.92125     -9927.0832     -13026.101     -13052.747     -3702.4019     -2.818672       3.5687076     -1.5794655      8.6943358      7.5294034      29.94043       1959.9952    
       152   0             -241.92125     -9927.0651     -13026.065     -13052.755     -3702.3752     -2.8059436      3.5376112     -1.6301163      8.6943358      7.5294034      29.94043       1959.9952    
       153   0             -241.92125     -9927.0442     -13026.04      -13052.738     -3702.3547     -2.8037744      3.5342723     -1.6402837      8.6943358      7.5294034      29.94043       1959.9952    
       154   0             -241.92125     -9927.0988     -13026.095     -13052.771     -3702.4307     -2.8124712      3.5546419     -1.6124946      8.6943358      7.5294034      29.94043       1959.9952    
       155   0             -241.92125     -9927.0547     -13026.063     -13052.732     -3702.3697     -2.8119244      3.5530713     -1.6065576      8.6943358      7.5294034      29.94043       1959.9952    
       156   0             -241.92125     -9927.0965     -13026.089     -13052.769     -3702.4309     -2.8078648      3.545807      -1.6214828      8.6943358      7.5294034      29.94043       1959.9952    
       157   0             -241.92125     -9927.0536     -13026.045     -13052.736     -3702.3792     -2.8134123      3.5583425     -1.6319013      8.6943358      7.5294034      29.94043       1959.9952    
       158   0             -241.92125     -9927.0702     -13026.06      -13052.748     -3702.4028     -2.816702       3.5633045     -1.6266239      8.6943358      7.5294034      29.94043       1959.9952    
       159   0             -241.92125     -9927.0659     -13026.06      -13052.741     -3702.3966     -2.8134397      3.5557067     -1.6188303      8.6943358      7.5294034      29.94043       1959.9952    
       160   0             -241.92125     -9927.0615     -13026.055     -13052.739     -3702.3903     -2.8128411      3.5559348     -1.6235461      8.6943358      7.5294034      29.94043       1959.9952    
       161   0             -241.92125     -9927.0673     -13026.058     -13052.745     -3702.3984     -2.8143634      3.5599567     -1.6277933      8.6943358      7.5294034      29.94043       1959.9952    
       162   0             -241.92125     -9927.0551     -13026.05      -13052.733     -3702.3823     -2.8139511      3.5580504     -1.6234233      8.6943358      7.5294034      29.94043       1959.9952    
       163   0             -241.92125     -9927.0606     -13026.054     -13052.737     -3702.3901     -2.8132081      3.5556474     -1.6217477      8.6943358      7.5294034      29.94043       1959.9952    
       164   0             -241.92125     -9927.0572     -13026.05      -13052.736     -3702.3855     -2.8141819      3.5581185     -1.6268661      8.6943358      7.5294034      29.94043       1959.9952    
       165   0             -241.92125     -9927.0614     -13026.052     -13052.74      -3702.3917     -2.8149549      3.5600906     -1.6280521      8.6943358      7.5294034      29.94043       1959.9952    
       166   0             -241.92125     -9927.0647     -13026.056     -13052.741     -3702.3969     -2.8146452      3.5593988     -1.6246442      8.6943358      7.5294034      29.94043       1959.9952    
       167   0             -241.92125     -9927.0623     -13026.054     -13052.739     -3702.3934     -2.8141409      3.5581146     -1.6243179      8.6943358      7.5294034      29.94043       1959.9952    
       168   0             -241.92125     -9927.0631     -13026.054     -13052.741     -3702.3944     -2.8141911      3.5582006     -1.6262413      8.6943358      7.5294034      29.94043       1959.9952    
       169   0             -241.92125     -9927.0574     -13026.049     -13052.736     -3702.3867     -2.8147032      3.5594467     -1.6273016      8.6943358      7.5294034      29.94043       1959.9952    
       170   0             -241.92125     -9927.059      -13026.051     -13052.737     -3702.3889     -2.8147568      3.5595463     -1.6263123      8.6943358      7.5294034      29.94043       1959.9952    
       171   0             -241.92125     -9927.0596     -13026.052     -13052.737     -3702.3899     -2.8144866      3.5589162     -1.6253558      8.6943358      7.5294034      29.94043       1959.9952    
       172   0             -241.92125     -9927.0614     -13026.053     -13052.739     -3702.3926     -2.8145236      3.5590187     -1.6257239      8.6943358      7.5294034      29.94043       1959.9952    
       173   0             -241.92125     -9927.0623     -13026.053     -13052.74      -3702.394      -2.8147462      3.5595279     -1.626328       8.6943358      7.5294034      29.94043       1959.9952    
       174   0             -241.92125     -9927.0615     -13026.053     -13052.739     -3702.3928     -2.8147395      3.5595012     -1.6260663      8.6943358      7.5294034      29.94043       1959.9952    
       175   0             -241.92125     -9927.0609     -13026.053     -13052.738     -3702.3921     -2.8146575      3.5593171     -1.6256948      8.6943358      7.5294034      29.94043       1959.9952    
       176   0             -241.92125     -9927.0599     -13026.052     -13052.737     -3702.3907     -2.814709       3.5594251     -1.6259962      8.6943358      7.5294034      29.94043       1959.9952    
       177   0             -241.92125     -9927.0604     -13026.052     -13052.738     -3702.3913     -2.814747       3.5594995     -1.6262154      8.6943358      7.5294034      29.94043       1959.9952    
       178   0             -241.92125     -9927.0608     -13026.052     -13052.738     -3702.392      -2.8147004      3.5594019     -1.6260292      8.6943358      7.5294034      29.94043       1959.9952    
       179   0             -241.92125     -9927.0613     -13026.053     -13052.738     -3702.3927     -2.8146854      3.559381      -1.6259232      8.6943358      7.5294034      29.94043       1959.9952    
       180   0             -241.92125     -9927.0614     -13026.053     -13052.739     -3702.3928     -2.8147209      3.559466      -1.6260407      8.6943358      7.5294034      29.94043       1959.9952    
       181   0             -241.92125     -9927.0608     -13026.052     -13052.738     -3702.3921     -2.8147432      3.5595004     -1.6261362      8.6943358      7.5294034      29.94043       1959.9952    
       182   0             -241.92125     -9927.0607     -13026.052     -13052.738     -3702.3918     -2.8147418      3.5594841     -1.6261023      8.6943358      7.5294034      29.94043       1959.9952    
       183   0             -241.92125     -9927.0606     -13026.052     -13052.738     -3702.3917     -2.8147324      3.55947       -1.6260391      8.6943358      7.5294034      29.94043       1959.9952    
       184   0             -241.92125     -9927.0608     -13026.052     -13052.738     -3702.3919     -2.8147313      3.5594751     -1.6260434      8.6943358      7.5294034      29.94043       1959.9952    
       185   0             -241.92125     -9927.0609     -13026.052     -13052.738     -3702.3921     -2.8147359      3.5594866     -1.6260879      8.6943358      7.5294034      29.94043       1959.9952    
       186   0             -241.92125     -9927.0609     -13026.052     -13052.738     -3702.3921     -2.8147337      3.5594785     -1.6260775      8.6943358      7.5294034      29.94043       1959.9952    
       187   0             -241.92125     -9927.0609     -13026.052     -13052.738     -3702.3921     -2.8147296      3.5594675     -1.62605        8.6943358      7.5294034      29.94043       1959.9952    
       188   0             -241.92125     -9927.0608     -13026.052     -13052.738     -3702.3919     -2.8147368      3.5594841     -1.6260678      8.6943358      7.5294034      29.94043       1959.9952    
       189   0             -241.92125     -9927.0608     -13026.052     -13052.738     -3702.392      -2.8147421      3.5594952     -1.6260828      8.6943358      7.5294034      29.94043       1959.9952    
       190   0             -241.92125     -9927.0608     -13026.052     -13052.738     -3702.392      -2.8147396      3.5594893     -1.6260762      8.6943358      7.5294034      29.94043       1959.9952    
       191   0             -241.92125     -9927.0608     -13026.052     -13052.738     -3702.392      -2.8147375      3.5594852     -1.6260726      8.6943358      7.5294034      29.94043       1959.9952    
       192   0             -241.92125     -9927.0608     -13026.052     -13052.738     -3702.392      -2.814739       3.5594887     -1.6260775      8.6943358      7.5294034      29.94043       1959.9952    
       193   0             -241.92125     -9927.0608     -13026.052     -13052.738     -3702.392      -2.8147395      3.5594902     -1.6260781      8.6943358      7.5294034      29.94043       1959.9952    
       194   0             -241.92125     -9927.0608     -13026.052     -13052.738     -3702.392      -2.8147389      3.5594893     -1.6260752      8.6943358      7.5294034      29.94043       1959.9952    
       195   0             -241.92125     -9927.0608     -13026.052     -13052.738     -3702.392      -2.8147391      3.559489      -1.6260753      8.6943358      7.5294034      29.94043       1959.9952    
       196   0             -241.92125     -9927.0608     -13026.052     -13052.738     -3702.392      -2.8147395      3.5594894     -1.6260776      8.6943358      7.5294034      29.94043       1959.9952    
       197   0             -241.92125     -9927.0608     -13026.052     -13052.738     -3702.392      -2.8147396      3.5594901     -1.6260788      8.6943358      7.5294034      29.94043       1959.9952    
       198   0             -241.92125     -9927.0608     -13026.052     -13052.738     -3702.392      -2.8147396      3.5594905     -1.626077       8.6943358      7.5294034      29.94043       1959.9952    
       199   0             -241.92125     -9927.0608     -13026.052     -13052.738     -3702.392      -2.8147396      3.5594903     -1.6260754      8.6943358      7.5294034      29.94043       1959.9952    
       200   0             -241.92125     -9927.0608     -13026.052     -13052.738     -3702.392      -2.8147395      3.5594899     -1.6260768      8.6943358      7.5294034      29.94043       1959.9952    
Loop time of 0.0376371 on 48 procs for 100 steps with 60 atoms

99.5% CPU use with 48 MPI tasks x no OpenMP threads

Minimization stats:
  Stopping criterion = max iterations
  Energy initial, next-to-last, final = 
     -241.177590406802  -241.921253821721   -241.92125382172
  Force two-norm initial, final = 2.1438277 3.6301663e-09
  Force max component initial, final = 0.41425606 7.6114254e-10
  Final line search alpha, max atom move = 1 7.6114254e-10
  Iterations, force evaluations = 100 178

MPI task timing breakdown:
Section |  min time  |  avg time  |  max time  |%varavg| %total
---------------------------------------------------------------
Pair    | 1.9521e-05 | 0.0091804  | 0.022568   |   6.1 | 24.39
Neigh   | 0          | 0          | 0          |   0.0 |  0.00
Comm    | 0.0061194  | 0.019025   | 0.028774   |   4.1 | 50.55
Output  | 0.0037954  | 0.0038726  | 0.0043688  |   0.1 | 10.29
Modify  | 0          | 0          | 0          |   0.0 |  0.00
Other   |            | 0.00556    |            |       | 14.77

Nlocal:           1.25 ave           3 max           0 min
Histogram: 8 0 0 23 0 0 14 0 0 3
Nghost:         180.75 ave         183 max         177 min
Histogram: 2 7 0 5 0 3 7 0 18 6
Neighs:              0 ave           0 max           0 min
Histogram: 48 0 0 0 0 0 0 0 0 0
FullNghs:           52 ave         126 max           0 min
Histogram: 8 0 0 23 0 0 14 0 0 3

Total # of neighbors = 2496
Ave neighs/atom = 41.6
Neighbor list builds = 0
Dangerous builds = 0

# Obtain new stress tensor

variable tmp equal pe
variable e1 equal ${tmp}
variable e1 equal -241.92125382172
variable tmp equal press
variable p1 equal ${tmp}
variable p1 equal -9927.06080500808
variable tmp equal pxx
variable pxx1 equal ${tmp}
variable pxx1 equal -13026.0522689163
variable tmp equal pyy
variable pyy1 equal ${tmp}
variable pyy1 equal -13052.7381357382
variable tmp equal pzz
variable pzz1 equal ${tmp}
variable pzz1 equal -3702.39201036976
variable tmp equal pxy
variable pxy1 equal ${tmp}
variable pxy1 equal -2.81473954504038
variable tmp equal pxz
variable pxz1 equal ${tmp}
variable pxz1 equal 3.55948993889599
variable tmp equal pyz
variable pyz1 equal ${tmp}
variable pyz1 equal -1.6260767871864

# Compute elastic constant from pressure tensor

variable C1pos equal ${d1}
variable C1pos equal -644330.13161847
variable C2pos equal ${d2}
variable C2pos equal -644340.74357686
variable C3pos equal ${d3}
variable C3pos equal -1574816.50851647
variable C4pos equal ${d4}
variable C4pos equal 554.329480504059
variable C5pos equal ${d5}
variable C5pos equal -1261.98801386494
variable C6pos equal ${d6}
variable C6pos equal -347.321562976357

# Combine positive and negative

variable C1${dir} equal 0.5*(${C1neg}+${C1pos})
variable C16 equal 0.5*(${C1neg}+${C1pos})
variable C16 equal 0.5*(644330.27156029+${C1pos})
variable C16 equal 0.5*(644330.27156029+-644330.13161847)
variable C2${dir} equal 0.5*(${C2neg}+${C2pos})
variable C26 equal 0.5*(${C2neg}+${C2pos})
variable C26 equal 0.5*(644340.73932166+${C2pos})
variable C26 equal 0.5*(644340.73932166+-644340.74357686)
variable C3${dir} equal 0.5*(${C3neg}+${C3pos})
variable C36 equal 0.5*(${C3neg}+${C3pos})
variable C36 equal 0.5*(1574816.60155971+${C3pos})
variable C36 equal 0.5*(1574816.60155971+-1574816.50851647)
variable C4${dir} equal 0.5*(${C4neg}+${C4pos})
variable C46 equal 0.5*(${C4neg}+${C4pos})
variable C46 equal 0.5*(-554.474260838394+${C4pos})
variable C46 equal 0.5*(-554.474260838394+554.329480504059)
variable C5${dir} equal 0.5*(${C5neg}+${C5pos})
variable C56 equal 0.5*(${C5neg}+${C5pos})
variable C56 equal 0.5*(1240.34228878736+${C5pos})
variable C56 equal 0.5*(1240.34228878736+-1261.98801386494)
variable C6${dir} equal 0.5*(${C6neg}+${C6pos})
variable C66 equal 0.5*(${C6neg}+${C6pos})
variable C66 equal 0.5*(400.644127727756+${C6pos})
variable C66 equal 0.5*(400.644127727756+-347.321562976357)

# Delete dir to make sure it is not reused

variable dir delete

# Output final values

variable C11all equal ${C11}
variable C11all equal 67.349517930008
variable C22all equal ${C22}
variable C22all equal 67.84174324997
variable C33all equal ${C33}
variable C33all equal 21.0216351849958

variable C12all equal 0.5*(${C12}+${C21})
variable C12all equal 0.5*(14.0828370649833+${C21})
variable C12all equal 0.5*(14.0828370649833+14.0801682349993)
variable C13all equal 0.5*(${C13}+${C31})
variable C13all equal 0.5*(13.2045054050395+${C31})
variable C13all equal 0.5*(13.2045054050395+14.1368705950445)
variable C23all equal 0.5*(${C23}+${C32})
variable C23all equal 0.5*(13.5920830849791+${C32})
variable C23all equal 0.5*(13.5920830849791+14.5271172650391)

variable C44all equal ${C44}
variable C44all equal 22.946416498524
variable C55all equal ${C55}
variable C55all equal 22.82626099675
variable C66all equal ${C66}
variable C66all equal 26.6612823756995

variable C14all equal 0.5*(${C14}+${C41})
variable C14all equal 0.5*(-10.7500403049635+${C41})
variable C14all equal 0.5*(-10.7500403049635+-10.7502031327715)
variable C15all equal 0.5*(${C15}+${C51})
variable C15all equal 0.5*(-0.119849629991222+${C51})
variable C15all equal 0.5*(-0.119849629991222+-0.119160007490109)
variable C16all equal 0.5*(${C16}+${C61})
variable C16all equal 0.5*(0.0699709100299515+${C61})
variable C16all equal 0.5*(0.0699709100299515+0.0694615579685092)

variable C24all equal 0.5*(${C24}+${C42})
variable C24all equal 0.5*(11.1151442349656+${C42})
variable C24all equal 0.5*(11.1151442349656+11.1148186449385)
variable C25all equal 0.5*(${C25}+${C52})
variable C25all equal 0.5*(0.0323328399681486+${C52})
variable C25all equal 0.5*(0.0323328399681486+0.0326773553549629)
variable C26all equal 0.5*(${C26}+${C62})
variable C26all equal 0.5*(-0.00212760001886636+${C62})
variable C26all equal 0.5*(-0.00212760001886636+-0.00212734143400439)

variable C34all equal 0.5*(${C34}+${C43})
variable C34all equal 0.5*(0.293577329954132+${C43})
variable C34all equal 0.5*(0.293577329954132+0.293576955663525)
variable C35all equal 0.5*(${C35}+${C53})
variable C35all equal 0.5*(-0.0896853099111468+${C53})
variable C35all equal 0.5*(-0.0896853099111468+-0.0896866693749416)
variable C36all equal 0.5*(${C36}+${C63})
variable C36all equal 0.5*(0.0465216200100258+${C63})
variable C36all equal 0.5*(0.0465216200100258+0.0462673852035209)

variable C45all equal 0.5*(${C45}+${C54})
variable C45all equal 0.5*(0.151587503818519+${C54})
variable C45all equal 0.5*(0.151587503818519+0.151587522040018)
variable C46all equal 0.5*(${C46}+${C64})
variable C46all equal 0.5*(-0.072390167167498+${C64})
variable C46all equal 0.5*(-0.072390167167498+-0.072735303221009)
variable C56all equal 0.5*(${C56}+${C65})
variable C56all equal 0.5*(-10.82286253879+${C65})
variable C56all equal 0.5*(-10.82286253879+-10.822862554922)

print "========================================="
=========================================
print "Components of the Elastic Constant Tensor"
Components of the Elastic Constant Tensor
print "========================================="
=========================================

print "Elastic Constant C11all = ${C11all} ${cunits}"
Elastic Constant C11all = 67.349517930008 GPa
print "Elastic Constant C22all = ${C22all} ${cunits}"
Elastic Constant C22all = 67.84174324997 GPa
print "Elastic Constant C33all = ${C33all} ${cunits}"
Elastic Constant C33all = 21.0216351849958 GPa

print "Elastic Constant C12all = ${C12all} ${cunits}"
Elastic Constant C12all = 14.0815026499913 GPa
print "Elastic Constant C13all = ${C13all} ${cunits}"
Elastic Constant C13all = 13.670688000042 GPa
print "Elastic Constant C23all = ${C23all} ${cunits}"
Elastic Constant C23all = 14.0596001750091 GPa

print "Elastic Constant C44all = ${C44all} ${cunits}"
Elastic Constant C44all = 22.946416498524 GPa
print "Elastic Constant C55all = ${C55all} ${cunits}"
Elastic Constant C55all = 22.82626099675 GPa
print "Elastic Constant C66all = ${C66all} ${cunits}"
Elastic Constant C66all = 26.6612823756995 GPa

print "Elastic Constant C14all = ${C14all} ${cunits}"
Elastic Constant C14all = -10.7501217188675 GPa
print "Elastic Constant C15all = ${C15all} ${cunits}"
Elastic Constant C15all = -0.119504818740665 GPa
print "Elastic Constant C16all = ${C16all} ${cunits}"
Elastic Constant C16all = 0.0697162339992304 GPa

print "Elastic Constant C24all = ${C24all} ${cunits}"
Elastic Constant C24all = 11.1149814399521 GPa
print "Elastic Constant C25all = ${C25all} ${cunits}"
Elastic Constant C25all = 0.0325050976615558 GPa
print "Elastic Constant C26all = ${C26all} ${cunits}"
Elastic Constant C26all = -0.00212747072643538 GPa

print "Elastic Constant C34all = ${C34all} ${cunits}"
Elastic Constant C34all = 0.293577142808829 GPa
print "Elastic Constant C35all = ${C35all} ${cunits}"
Elastic Constant C35all = -0.0896859896430442 GPa
print "Elastic Constant C36all = ${C36all} ${cunits}"
Elastic Constant C36all = 0.0463945026067734 GPa

print "Elastic Constant C45all = ${C45all} ${cunits}"
Elastic Constant C45all = 0.151587512929268 GPa
print "Elastic Constant C46all = ${C46all} ${cunits}"
Elastic Constant C46all = -0.0725627351942535 GPa
print "Elastic Constant C56all = ${C56all} ${cunits}"
Elastic Constant C56all = -10.822862546856 GPa

# ==========================================================
# Average elastic properties for NON-CUBIC 3D crystal
# (Isotropic Voigt averaging)
# ==========================================================

variable bulkmodulus equal (${C11all}+${C22all}+${C33all}+2*(${C12all}+${C13all}+${C23all}))/9.0
variable bulkmodulus equal (67.349517930008+${C22all}+${C33all}+2*(${C12all}+${C13all}+${C23all}))/9.0
variable bulkmodulus equal (67.349517930008+67.84174324997+${C33all}+2*(${C12all}+${C13all}+${C23all}))/9.0
variable bulkmodulus equal (67.349517930008+67.84174324997+21.0216351849958+2*(${C12all}+${C13all}+${C23all}))/9.0
variable bulkmodulus equal (67.349517930008+67.84174324997+21.0216351849958+2*(14.0815026499913+${C13all}+${C23all}))/9.0
variable bulkmodulus equal (67.349517930008+67.84174324997+21.0216351849958+2*(14.0815026499913+13.670688000042+${C23all}))/9.0
variable bulkmodulus equal (67.349517930008+67.84174324997+21.0216351849958+2*(14.0815026499913+13.670688000042+14.0596001750091))/9.0

variable shearmodulus equal (${C11all}+${C22all}+${C33all}-${C12all}-${C13all}-${C23all}+3*(${C44all}+${C55all}+${C66all}))/15.0
variable shearmodulus equal (67.349517930008+${C22all}+${C33all}-${C12all}-${C13all}-${C23all}+3*(${C44all}+${C55all}+${C66all}))/15.0
variable shearmodulus equal (67.349517930008+67.84174324997+${C33all}-${C12all}-${C13all}-${C23all}+3*(${C44all}+${C55all}+${C66all}))/15.0
variable shearmodulus equal (67.349517930008+67.84174324997+21.0216351849958-${C12all}-${C13all}-${C23all}+3*(${C44all}+${C55all}+${C66all}))/15.0
variable shearmodulus equal (67.349517930008+67.84174324997+21.0216351849958-14.0815026499913-${C13all}-${C23all}+3*(${C44all}+${C55all}+${C66all}))/15.0
variable shearmodulus equal (67.349517930008+67.84174324997+21.0216351849958-14.0815026499913-13.670688000042-${C23all}+3*(${C44all}+${C55all}+${C66all}))/15.0
variable shearmodulus equal (67.349517930008+67.84174324997+21.0216351849958-14.0815026499913-13.670688000042-14.0596001750091+3*(${C44all}+${C55all}+${C66all}))/15.0
variable shearmodulus equal (67.349517930008+67.84174324997+21.0216351849958-14.0815026499913-13.670688000042-14.0596001750091+3*(22.946416498524+${C55all}+${C66all}))/15.0
variable shearmodulus equal (67.349517930008+67.84174324997+21.0216351849958-14.0815026499913-13.670688000042-14.0596001750091+3*(22.946416498524+22.82626099675+${C66all}))/15.0
variable shearmodulus equal (67.349517930008+67.84174324997+21.0216351849958-14.0815026499913-13.670688000042-14.0596001750091+3*(22.946416498524+22.82626099675+26.6612823756995))/15.0

variable poissonratio equal (3.0*${bulkmodulus}-2.0*${shearmodulus})/(2.0*(3.0*${bulkmodulus}+${shearmodulus}))
variable poissonratio equal (3.0*26.6484975572287-2.0*${shearmodulus})/(2.0*(3.0*${bulkmodulus}+${shearmodulus}))
variable poissonratio equal (3.0*26.6484975572287-2.0*22.1135323435235)/(2.0*(3.0*${bulkmodulus}+${shearmodulus}))
variable poissonratio equal (3.0*26.6484975572287-2.0*22.1135323435235)/(2.0*(3.0*26.6484975572287+${shearmodulus}))
variable poissonratio equal (3.0*26.6484975572287-2.0*22.1135323435235)/(2.0*(3.0*26.6484975572287+22.1135323435235))

variable youngmodulus equal ((9.0*${bulkmodulus}*${shearmodulus})/(3.0*${bulkmodulus}+${shearmodulus}))
variable youngmodulus equal ((9.0*26.6484975572287*${shearmodulus})/(3.0*${bulkmodulus}+${shearmodulus}))
variable youngmodulus equal ((9.0*26.6484975572287*22.1135323435235)/(3.0*${bulkmodulus}+${shearmodulus}))
variable youngmodulus equal ((9.0*26.6484975572287*22.1135323435235)/(3.0*26.6484975572287+${shearmodulus}))
variable youngmodulus equal ((9.0*26.6484975572287*22.1135323435235)/(3.0*26.6484975572287+22.1135323435235))


print "========================================="
=========================================
print "Average elastic properties (3D non-cubic)"
Average elastic properties (3D non-cubic)
print "Isotropic Voigt averages from full C_ij"
Isotropic Voigt averages from full C_ij
print "========================================="
=========================================

print "Bulk Modulus (Voigt)      = ${bulkmodulus} ${cunits}"
Bulk Modulus (Voigt)      = 26.6484975572287 GPa
print "Shear Modulus (Voigt)     = ${shearmodulus} ${cunits}"
Shear Modulus (Voigt)     = 22.1135323435235 GPa
print "Young Modulus (Voigt)   = ${youngmodulus} ${cunits}"
Young Modulus (Voigt)   = 51.9663176573788 GPa
print "Poisson Ratio (Voigt)     = ${poissonratio}"
Poisson Ratio (Voigt)     = 0.174989071173843

Total wall time: 0:00:05
