! Set=C44  delta=delta_+0.004  [SCF from relaxed]
&CONTROL
   calculation      = 'scf'
   verbosity        = 'high'
   restart_mode     = 'from_scratch'
   tstress          = .true.
   tprnfor          = .true.
   outdir           = './'
   etot_conv_thr    = 1e-10
   forc_conv_thr    = 1e-10
   disk_io          = 'none'
   pseudo_dir       = '/home/IITB/multiscale-mechanics/amit.k.singh/PP/PBE_ONCV/'
/
&SYSTEM
   ibrav            = 0
   nat              = 15
   ntyp             = 2
   ecutwfc          = 120.0
   occupations      = 'smearing'
   degauss          = 0.01
   smearing         = 'mp'
   vdw_corr         = 'grimme-d3'
   dftd3_version    = 4
   dftd3_threebody  = .true.
/
&ELECTRONS
   electron_maxstep = 400
   conv_thr         = 1e-12
   mixing_beta      = 0.3
/
&IONS
/
&CELL
/
&FCP
/
&RISM
/
ATOMIC_SPECIES
Bi 208.9804 Bi.UPF
Te 127.6 Te.UPF

K_POINTS automatic
12 12 1  0 0 0

CELL_PARAMETERS angstrom
4.38989458200000 0.00000000000000 0.00000000000000
-2.19494729000000 3.80176022800000 0.01520704091200
0.00000000000000 0.12097141518800 30.24285379700000

ATOMIC_POSITIONS angstrom
Bi  -0.0000000000  0.0407587973  12.1007300217
Bi  0.0000000000  0.0802126179  18.1421237749
Bi  2.1949472907  1.3482683062  22.1866968021
Bi  2.1949472907  1.3879721951  28.2283328624
Bi  0.0000000000  2.5347594475  2.0297279752
Bi  0.0000000000  2.5744633364  8.0713640354
Te  -0.0000000000  0.0428940285  6.3303032545
Te  -0.0000000000  0.0780773867  23.9125505422
Te  2.1949472907  1.3503203920  16.4163742334
Te  2.1949472907  1.2644731919  3.7553977919
Te  -0.0000000000  2.6582584507  26.5026630457
Te  0.0000000000  2.5724112506  13.8416866042
Te  0.0000000000  0.0000000000  0.0000000000
Te  2.1949472907  1.3076008584  10.0861139660
Te  -0.0000000000  2.6151307842  20.1719468716
