! Set=C13m  delta=delta_+0.004  [SCF from relaxed]
&CONTROL
   calculation      = 'scf'
   verbosity        = 'high'
   restart_mode     = 'from_scratch'
   tstress          = .true.
   tprnfor          = .true.
   outdir           = './'
   etot_conv_thr    = 1e-10
   forc_conv_thr    = 1e-10
   disk_io          = 'none'
   pseudo_dir       = '/home/IITB/multiscale-mechanics/amit.k.singh/PP/PBE_ONCV/'
/
&SYSTEM
   ibrav            = 0
   nat              = 15
   ntyp             = 2
   ecutwfc          = 120.0
   occupations      = 'smearing'
   degauss          = 0.01
   smearing         = 'mp'
   vdw_corr         = 'grimme-d3'
   dftd3_version    = 4
   dftd3_threebody  = .true.
/
&ELECTRONS
   electron_maxstep = 400
   conv_thr         = 1e-12
   mixing_beta      = 0.3
/
&IONS
/
&CELL
/
&FCP
/
&RISM
/
ATOMIC_SPECIES
Bi 208.9804 Bi.UPF
Te 127.6 Te.UPF

K_POINTS automatic
12 12 1  0 0 0

CELL_PARAMETERS angstrom
4.40745416032800 0.00000000000000 0.00000000000000
-2.20372707916000 3.80176022800000 0.00000000000000
0.00000000000000 0.00000000000000 30.12188238181200

ATOMIC_POSITIONS angstrom
Bi  0.0000000000  0.0016956940  12.0549010091
Bi  -0.0000000000  -0.0016956940  18.0669813723
Bi  2.2037270799  1.2690039464  22.0954547250
Bi  2.2037270799  1.2654918990  28.1077329653
Bi  0.0000000000  2.5362683284  2.0141494162
Bi  0.0000000000  2.5327562810  8.0264276564
Te  -0.0000000000  -0.0042303284  6.3005613628
Te  0.0000000000  0.0042303284  23.8213210187
Te  2.2037270799  1.2630864176  16.3411531826
Te  2.2037270799  1.2714989309  3.7399357009
Te  0.0000000000  2.5302612965  26.3819466806
Te  0.0000000000  2.5386738098  13.7807291989
Te  0.0000000000  0.0000000000  0.0000000000
Te  2.2037270799  1.2672330026  10.0407073979
Te  0.0000000000  2.5345272248  20.0811749836
