! Set=C13m  delta=delta_-0.002  [SCF from relaxed]
&CONTROL
   calculation      = 'scf'
   verbosity        = 'high'
   restart_mode     = 'from_scratch'
   tstress          = .true.
   tprnfor          = .true.
   outdir           = './'
   etot_conv_thr    = 1e-10
   forc_conv_thr    = 1e-10
   disk_io          = 'none'
   pseudo_dir       = '/home/IITB/multiscale-mechanics/amit.k.singh/PP/PBE_ONCV/'
/
&SYSTEM
   ibrav            = 0
   nat              = 15
   ntyp             = 2
   ecutwfc          = 120.0
   occupations      = 'smearing'
   degauss          = 0.01
   smearing         = 'mp'
   vdw_corr         = 'grimme-d3'
   dftd3_version    = 4
   dftd3_threebody  = .true.
/
&ELECTRONS
   electron_maxstep = 400
   conv_thr         = 1e-12
   mixing_beta      = 0.3
/
&IONS
/
&CELL
/
&FCP
/
&RISM
/
ATOMIC_SPECIES
Bi 208.9804 Bi.UPF
Te 127.6 Te.UPF

K_POINTS automatic
12 12 1  0 0 0

CELL_PARAMETERS angstrom
4.38111479283600 0.00000000000000 0.00000000000000
-2.19055739542000 3.80176022800000 0.00000000000000
0.00000000000000 0.00000000000000 30.30333950459400

ATOMIC_POSITIONS angstrom
Bi  0.0000000000  -0.0007224425  12.1240054549
Bi  0.0000000000  0.0007224425  18.1793340493
Bi  2.1905573961  1.2665256880  22.2249930772
Bi  2.1905573961  1.2680079207  28.2805836674
Bi  -0.0000000000  2.5337523067  2.0227558369
Bi  -0.0000000000  2.5352345394  8.0783464270
Te  -0.0000000000  0.0020044417  6.3448177222
Te  0.0000000000  -0.0020044417  23.9585217821
Te  2.1905573961  1.2692545259  16.4458404985
Te  2.1905573961  1.2652065852  3.7562200970
Te  -0.0000000000  2.5365536422  26.5471194073
Te  -0.0000000000  2.5325057015  13.8574990058
Te  0.0000000000  0.0000000000  0.0000000000
Te  2.1905573961  1.2672545385  10.1012288074
Te  -0.0000000000  2.5345056889  20.2021106969
