! Set=C11  delta=delta_-0.002  [SCF from relaxed]
&CONTROL
   calculation      = 'scf'
   verbosity        = 'high'
   restart_mode     = 'from_scratch'
   tstress          = .true.
   tprnfor          = .true.
   outdir           = './'
   etot_conv_thr    = 1e-10
   forc_conv_thr    = 1e-10
   disk_io          = 'none'
   pseudo_dir       = '/home/IITB/multiscale-mechanics/amit.k.singh/PP/PBE_ONCV/'
/
&SYSTEM
   ibrav            = 0
   nat              = 15
   ntyp             = 2
   ecutwfc          = 120.0
   occupations      = 'smearing'
   degauss          = 0.01
   smearing         = 'mp'
   vdw_corr         = 'grimme-d3'
   dftd3_version    = 4
   dftd3_threebody  = .true.
/
&ELECTRONS
   electron_maxstep = 400
   conv_thr         = 1e-12
   mixing_beta      = 0.3
/
&IONS
/
&CELL
/
&FCP
/
&RISM
/
ATOMIC_SPECIES
Bi 208.9804 Bi.UPF
Te 127.6 Te.UPF

K_POINTS automatic
12 12 1  0 0 0

CELL_PARAMETERS angstrom
4.38111479283600 0.00000000000000 0.00000000000000
-2.19055739542000 3.79415670754400 0.00000000000000
0.00000000000000 0.00000000000000 30.24285379700000

ATOMIC_POSITIONS angstrom
Bi  -0.0000000000  -0.0000000000  12.1022947762
Bi  0.0000000000  0.0000000000  18.1405590204
Bi  2.1905573961  1.2647189023  22.1831450497
Bi  2.1905573961  1.2647189023  28.2216521700
Bi  0.0000000000  2.5294378047  2.0212016267
Bi  0.0000000000  2.5294378047  8.0597087469
Te  -0.0000000000  -0.0000000000  6.3253515379
Te  -0.0000000000  -0.0000000000  23.9175022588
Te  2.1905573961  1.2647189023  16.4062449159
Te  2.1905573961  1.2647189023  3.7554734185
Te  0.0000000000  2.5294378047  26.4873803782
Te  0.0000000000  2.5294378047  13.8366088808
Te  -0.0000000000  -0.0000000000  0.0000000000
Te  2.1905573961  1.2647189023  10.0810497251
Te  0.0000000000  2.5294378047  20.1618040716
