! Set=C11  delta=delta_+0.000  [SCF from relaxed]
&CONTROL
   calculation      = 'scf'
   verbosity        = 'high'
   restart_mode     = 'from_scratch'
   tstress          = .true.
   tprnfor          = .true.
   outdir           = './'
   etot_conv_thr    = 1e-10
   forc_conv_thr    = 1e-10
   disk_io          = 'none'
   pseudo_dir       = '/home/IITB/multiscale-mechanics/amit.k.singh/PP/PBE_ONCV/'
/
&SYSTEM
   ibrav            = 0
   nat              = 15
   ntyp             = 2
   ecutwfc          = 120.0
   occupations      = 'smearing'
   degauss          = 0.01
   smearing         = 'mp'
   vdw_corr         = 'grimme-d3'
   dftd3_version    = 4
   dftd3_threebody  = .true.
/
&ELECTRONS
   electron_maxstep = 400
   conv_thr         = 1e-12
   mixing_beta      = 0.3
/
&IONS
/
&CELL
/
&FCP
/
&RISM
/
ATOMIC_SPECIES
Bi 208.9804 Bi.UPF
Te 127.6 Te.UPF

K_POINTS automatic
12 12 1  0 0 0

CELL_PARAMETERS angstrom
4.38989458200000 0.00000000000000 0.00000000000000
-2.19494729000000 3.80176022800000 0.00000000000000
0.00000000000000 0.00000000000000 30.24285379700000

ATOMIC_POSITIONS angstrom
Bi  0.0000000000  0.0000000000  12.1011923484
Bi  0.0000000000  0.0000000000  18.1416614482
Bi  2.1949472907  1.2672534091  22.1820636574
Bi  2.1949472907  1.2672534091  28.2227180975
Bi  0.0000000000  2.5345068183  2.0201356992
Bi  0.0000000000  2.5345068183  8.0607901392
Te  -0.0000000000  -0.0000000000  6.3296176228
Te  0.0000000000  0.0000000000  23.9132361739
Te  2.1949472907  1.2672534091  16.4105168988
Te  2.1949472907  1.2672534091  3.7512370532
Te  0.0000000000  2.5345068183  26.4916167435
Te  0.0000000000  2.5345068183  13.8323368979
Te  -0.0000000000  0.0000000000  0.0000000000
Te  2.1949472907  1.2672534091  10.0810426417
Te  0.0000000000  2.5345068183  20.1618111550
