LAMMPS (24 Mar 2022)
Reading data file ...
  triclinic box = (0 0 0) to (8.779789 7.60352 30.242854) with tilt (-4.389895 0 0)
WARNING: Triclinic box skew is large (../domain.cpp:228)
  3 by 2 by 8 MPI processor grid
  reading atoms ...
  60 atoms
  read_data CPU = 0.453 seconds
Use the NEP4 potential with 3 atom types.
    type 0( Bi with Z = 83).
    type 1( Sb with Z = 51).
    type 2( Te with Z = 52).
    has universal ZBL with inner cutoff 1.25 A and outer cutoff 2.5 A.
    radial cutoff = 6 A.
    angular cutoff = 4 A.
    n_max_radial = 6.
    n_max_angular = 6.
    basis_size_radial = 8.
    basis_size_angular = 8.
    l_max_3body = 6.
    l_max_4body = 2.
    l_max_5body = 1.
    ANN = 56-60-1.
    number of neural network parameters = 10441.
    number of descriptor parameters = 1134.
    total number of parameters = 11575.
Neighbor list info ...
  update every 1 steps, delay 0 steps, check yes
  max neighbors/atom: 2000, page size: 100000
  master list distance cutoff = 7
  ghost atom cutoff = 7
  1 neighbor lists, perpetual/occasional/extra = 1 0 0
  (1) pair nep, perpetual
      attributes: full, newton on
      pair build: full/nsq
      stencil: none
      bin: none
Setting up cg style minimization ...
  Unit style    : metal
  Current step  : 0
WARNING: Energy due to 3 extra global DOFs will be included in minimizer energies
Per MPI rank memory allocation (min/avg/max) = 4.085 | 4.085 | 4.085 Mbytes
   Step          Temp          PotEng         Press           Pxx            Pyy            Pzz            Pxy            Pxz            Pyz             Lx             Ly             Lz           Volume    
         0   0             -238.36095     -17654.121     -17434.757     -17479.628     -18047.977     -11.116887      17.263114      42.629952      8.779789       7.60352        30.242854      2018.9313    
         1   0             -238.36747     -17509.513     -17295.635     -17340.288     -17892.617     -11.093504      17.261562      42.616154      8.7789409      7.6027836      30.23983       2018.3389    
         2   0             -238.37394     -17364.677     -17156.282     -17200.717     -17737.033     -11.07037       17.260125      42.602416      8.7780922      7.6020467      30.236805      2017.7464    
         3   0             -238.38036     -17219.611     -17016.697     -17060.913     -17581.222     -11.047488      17.258807      42.588743      8.7772429      7.6013094      30.233781      2017.1537    
         4   0             -238.38672     -17074.313     -16876.879     -16920.874     -17425.185     -11.024861      17.257611      42.57514       8.7763932      7.6005715      30.230757      2016.5609    
         5   0             -238.39304     -16928.781     -16736.825     -16780.599     -17268.919     -11.002491      17.256539      42.561612      8.7755428      7.5998332      30.227733      2015.9679    
         6   0             -238.3993      -16783.015     -16596.534     -16640.087     -17112.423     -10.980381      17.255595      42.548164      8.7746919      7.5990943      30.224708      2015.3748    
         7   0             -238.40551     -16637.012     -16456.005     -16499.334     -16955.695     -10.958534      17.254782      42.534803      8.7738404      7.598355       30.221684      2014.7816    
         8   0             -238.41166     -16490.77      -16315.236     -16358.341     -16798.734     -10.936953      17.254102      42.521533      8.7729883      7.5976151      30.21866       2014.1882    
         9   0             -238.41777     -16344.289     -16174.225     -16217.105     -16641.539     -10.915641      17.253561      42.508361      8.7721356      7.5968747      30.215635      2013.5946    
        10   0             -238.42382     -16197.567     -16032.969     -16075.623     -16484.107     -10.894601      17.25316       42.495292      8.7712823      7.5961338      30.212611      2013.0008    
        11   0             -238.42982     -16050.601     -15891.469     -15933.895     -16326.438     -10.873836      17.252904      42.482333      8.7704284      7.5953923      30.209587      2012.4069    
        12   0             -238.43576     -15903.39      -15749.72      -15791.919     -16168.53      -10.853349      17.252796      42.46949       8.7695739      7.5946502      30.206563      2011.8128    
        13   0             -238.44166     -15755.931     -15607.723     -15649.692     -16010.38      -10.833145      17.25284       42.456769      8.7687187      7.5939076      30.203538      2011.2186    
        14   0             -238.4475      -15608.224     -15465.473     -15507.212     -15851.987     -10.813225      17.25304       42.444176      8.7678628      7.5931644      30.200514      2010.6241    
        15   0             -238.45328     -15460.266     -15322.971     -15364.478     -15693.35      -10.793594      17.253399      42.43172       8.7670063      7.5924206      30.19749       2010.0294    
        16   0             -238.45902     -15312.055     -15180.212     -15221.487     -15534.467     -10.774255      17.253922      42.419405      8.766149       7.5916762      30.194465      2009.4346    
        17   0             -238.4647      -15163.589     -15037.196     -15078.237     -15375.335     -10.755212      17.254614      42.40724       8.7652911      7.5909312      30.191441      2008.8395    
        18   0             -238.47033     -15014.866     -14893.92      -14934.726     -15215.953     -10.736469      17.255477      42.395232      8.7644325      7.5901856      30.188417      2008.2443    
        19   0             -238.47591     -14865.884     -14750.382     -14790.952     -15056.319     -10.718029      17.256517      42.383388      8.7635731      7.5894394      30.185393      2007.6488    
        20   0             -238.48143     -14716.64      -14606.579     -14646.911     -14896.43      -10.699897      17.257739      42.371716      8.762713       7.5886924      30.182368      2007.0531    
        21   0             -238.4869      -14567.133     -14462.51      -14502.603     -14736.286     -10.682077      17.259146      42.360223      8.7618522      7.5879449      30.179344      2006.4571    
        22   0             -238.49231     -14417.359     -14318.17      -14358.024     -14575.883     -10.664573      17.260745      42.348919      8.7609906      7.5871966      30.17632       2005.861     
        23   0             -238.49768     -14267.317     -14173.559     -14213.172     -14415.219     -10.647389      17.262539      42.337811      8.7601282      7.5864477      30.173295      2005.2645    
        24   0             -238.50299     -14117.003     -14028.674     -14068.044     -14254.293     -10.63053       17.264534      42.326907      8.759265       7.585698       30.170271      2004.6679    
        25   0             -238.50824     -13966.416     -13883.511     -13922.637     -14093.101     -10.614         17.266736      42.316218      8.7584009      7.5849476      30.167247      2004.0709    
        26   0             -238.51344     -13815.553     -13738.068     -13776.949     -13931.642     -10.597804      17.26915       42.305751      8.7575361      7.5841965      30.164223      2003.4737    
        27   0             -238.51859     -13664.41      -13592.342     -13630.977     -13769.913     -10.581948      17.271781      42.295517      8.7566703      7.5834447      30.161198      2002.8762    
        28   0             -238.52369     -13512.986     -13446.33      -13484.717     -13607.911     -10.566436      17.274635      42.285525      8.7558037      7.582692       30.158174      2002.2785    
        29   0             -238.52873     -13361.277     -13300.029     -13338.167     -13445.634     -10.551273      17.277719      42.275784      8.7549363      7.5819386      30.15515       2001.6804    
        30   0             -238.53372     -13209.28      -13153.436     -13191.324     -13283.079     -10.536465      17.281039      42.266306      8.7540678      7.5811844      30.152125      2001.0821    
        31   0             -238.53865     -13056.992     -13006.548     -13044.184     -13120.243     -10.522018      17.284601      42.257101      8.7531985      7.5804293      30.149101      2000.4834    
        32   0             -238.54353     -12904.409     -12859.361     -12896.743     -12957.124     -10.507937      17.288412      42.24818       8.7523282      7.5796734      30.146077      1999.8844    
        33   0             -238.54835     -12751.53      -12711.871     -12748.999     -12793.718     -10.494228      17.292479      42.239554      8.7514569      7.5789167      30.143053      1999.2851    
        34   0             -238.55312     -12598.349     -12564.076     -12600.947     -12630.023     -10.480897      17.296809      42.231235      8.7505846      7.578159       30.140028      1998.6854    
        35   0             -238.55784     -12444.864     -12415.971     -12452.585     -12466.035     -10.467951      17.30141       42.223235      8.7497113      7.5774005      30.137004      1998.0854    
        36   0             -238.5625      -12291.07      -12267.553     -12303.907     -12301.75      -10.455396      17.306289      42.215568      8.7488369      7.576641       30.13398       1997.485     
        37   0             -238.56711     -12136.981     -12118.834     -12154.926     -12137.184     -10.44324       17.311454      42.208246      8.7479615      7.5758806      30.130956      1996.8843    
        38   0             -238.57165     -11982.775     -11969.984     -12005.814     -11972.527     -10.431505      17.316907      42.201292      8.7470861      7.5751203      30.127936      1996.2839    
        39   0             -238.57614     -11828.453     -11821.006     -11856.572     -11807.781     -10.420196      17.322655      42.194718      8.7462108      7.5743599      30.12492       1995.684     
        40   0             -238.58057     -11674.016     -11671.9       -11707.201     -11642.948     -10.409319      17.328705      42.188537      8.7453355      7.5735996      30.121908      1995.0845    
        41   0             -238.58493     -11519.467     -11522.668     -11557.702     -11478.031     -10.398881      17.335066      42.182763      8.7444601      7.5728392      30.1189        1994.4853    
        42   0             -238.58924     -11364.807     -11373.311     -11408.077     -11313.033     -10.388889      17.341745      42.17741       8.7435848      7.5720789      30.115896      1993.8866    
        43   0             -238.59348     -11210.037     -11223.83      -11258.327     -11147.955     -10.37935       17.34875       42.172492      8.7427095      7.5713185      30.112897      1993.2882    
        44   0             -238.59767     -11055.16      -11074.227     -11108.453     -10982.801     -10.370269      17.356092      42.168024      8.7418343      7.5705582      30.109902      1992.6903    
        45   0             -238.60179     -10900.178     -10924.504     -10958.457     -10817.573     -10.361656      17.363777      42.164021      8.740959       7.5697978      30.106912      1992.0928    
        46   0             -238.60586     -10745.093     -10774.663     -10808.342     -10652.275     -10.353517      17.371816      42.1605        8.7400837      7.5690375      30.103926      1991.4958    
        47   0             -238.60986     -10589.907     -10624.704     -10658.107     -10486.91      -10.34586       17.380218      42.157476      8.7392085      7.5682771      30.100945      1990.8992    
        48   0             -238.61381     -10434.622     -10474.63      -10507.756     -10321.48      -10.338693      17.388992      42.154967      8.7383333      7.5675168      30.097969      1990.303     
        49   0             -238.61769     -10279.241     -10324.442     -10357.29      -10155.99      -10.332025      17.39815       42.15299       8.7374581      7.5667564      30.094999      1989.7073    
        50   0             -238.62151     -10123.765     -10174.143     -10206.711     -9990.4422     -10.325864      17.407701      42.151562      8.7365829      7.5659961      30.092033      1989.112     
        51   0             -238.62528     -9968.199      -10023.735     -10056.021     -9824.8413     -10.320219      17.417656      42.150703      8.7357077      7.5652357      30.089073      1988.5172    
        52   0             -238.62898     -9812.5441     -9873.2199     -9905.2216     -9659.1908     -10.315099      17.428027      42.150432      8.7348326      7.5644753      30.086118      1987.923     
        53   0             -238.63262     -9656.8035     -9722.5998     -9754.316      -9493.4948     -10.310515      17.438826      42.150769      8.7339575      7.563715       30.083168      1987.3292    
        54   0             -238.6362      -9500.9803     -9571.8772     -9603.3062     -9327.7575     -10.306475      17.450065      42.151734      8.7330824      7.5629546      30.080225      1986.7359    
        55   0             -238.63973     -9345.0776     -9421.0548     -9452.1946     -9161.9835     -10.30299       17.461757      42.15335       8.7322073      7.5621943      30.077287      1986.1431    
        56   0             -238.64319     -9189.0987     -9270.135      -9300.9838     -8996.1774     -10.300071      17.473914      42.155638      8.7313322      7.5614339      30.074356      1985.5508    
        57   0             -238.64659     -9033.0472     -9119.1207     -9149.6767     -8830.3441     -10.297729      17.48655       42.158622      8.7304571      7.5606736      30.07143       1984.9591    
        58   0             -238.64994     -8876.9265     -8968.0147     -8998.2759     -8664.4888     -10.295975      17.499681      42.162326      8.7295821      7.5599132      30.068512      1984.3679    
        59   0             -238.65322     -8720.7406     -8816.8203     -8846.7847     -8498.6168     -10.294821      17.51332       42.166774      8.7287071      7.5591529      30.065599      1983.7773    
        60   0             -238.65644     -8564.4935     -8665.5405     -8695.2061     -8332.7339     -10.294281      17.527483      42.171994      8.7278321      7.5583925      30.062694      1983.1873    
        61   0             -238.6596      -8408.1895     -8514.1788     -8543.5435     -8166.8461     -10.294366      17.542187      42.178012      8.7269571      7.5576322      30.059796      1982.5978    
        62   0             -238.66271     -8251.8329     -8362.7388     -8391.8004     -8000.9595     -10.29509       17.557447      42.184856      8.7260822      7.5568718      30.056905      1982.0089    
        63   0             -238.66575     -8095.4286     -8211.2242     -8239.9805     -7835.0809     -10.296468      17.573283      42.192557      8.7252073      7.5561115      30.054021      1981.4207    
        64   0             -238.66874     -7938.9814     -8059.6391     -8088.0879     -7669.2173     -10.298514      17.589712      42.201144      8.7243324      7.5553511      30.051146      1980.8331    
        65   0             -238.67166     -7782.4967     -7907.9876     -7936.1265     -7503.3759     -10.301243      17.606753      42.210649      8.7234575      7.5545908      30.048278      1980.2462    
        66   0             -238.67452     -7625.9799     -7756.2742     -7784.1009     -7337.5647     -10.304671      17.624427      42.221107      8.7225827      7.5538304      30.045419      1979.6599    
        67   0             -238.67733     -7469.4369     -7604.5036     -7632.0156     -7171.7917     -10.308815      17.642754      42.232553      8.7217078      7.5530701      30.042568      1979.0743    
        68   0             -238.68008     -7312.8586     -7452.6807     -7479.8756     -7006.0196     -10.313693      17.661758      42.245023      8.720833       7.5523097      30.039726      1978.4894    
        69   0             -238.68276     -7156.1178     -7300.8116     -7327.6867     -6839.8551     -10.319325      17.681462      42.25856       8.7199583      7.5515494      30.036893      1977.9052    
        70   0             -238.68539     -6999.4585     -7148.9052     -7175.458      -6674.0122     -10.325737      17.701895      42.273213      8.7190835      7.550789       30.03407       1977.3219    
        71   0             -238.68796     -6842.8061     -6996.9663     -7023.1939     -6508.2582     -10.332949      17.723082      42.289023      8.7182088      7.5500287      30.031257      1976.7392    
        72   0             -238.69047     -6686.1686     -6845.001      -6870.9007     -6342.6042     -10.340981      17.745049      42.306033      8.7173341      7.5492683      30.028455      1976.1574    
        73   0             -238.69292     -6529.5543     -6693.0161     -6718.585      -6177.0617     -10.349857      17.767824      42.324292      8.7164595      7.548508       30.025663      1975.5765    
        74   0             -238.69531     -6372.9718     -6541.0186     -6566.2537     -6011.6432     -10.359599      17.791438      42.343847      8.7155849      7.5477476      30.022883      1974.9964    
        75   0             -238.69764     -6216.4308     -6389.0163     -6413.9145     -5846.3617     -10.370232      17.815922      42.364751      8.7147103      7.5469873      30.020114      1974.4171    
        76   0             -238.69992     -6059.9412     -6237.0171     -6261.5752     -5681.2313     -10.381781      17.841309      42.387059      8.7138357      7.5462269      30.017358      1973.8388    
        77   0             -238.70214     -5903.5137     -6085.0297     -6109.2445     -5516.2669     -10.394273      17.867634      42.410828      8.7129612      7.5454665      30.014614      1973.2615    
        78   0             -238.70429     -5747.1598     -5933.0634     -5956.9314     -5351.4847     -10.407738      17.894936      42.43612       8.7120867      7.5447062      30.011884      1972.6852    
        79   0             -238.70639     -5590.8918     -5781.1281     -5804.6458     -5186.9016     -10.422205      17.923253      42.462999      8.7112123      7.5439458      30.009167      1972.1098    
        80   0             -238.70844     -5434.7229     -5629.2344     -5652.3981     -5022.5361     -10.437706      17.952627      42.491534      8.7103379      7.5431855      30.006465      1971.5356    
        81   0             -238.71042     -5278.6671     -5477.3937     -5500.1997     -4858.408      -10.454276      17.983104      42.521798      8.7094635      7.5424251      30.003778      1970.9625    
        82   0             -238.71235     -5122.7398     -5325.6183     -5348.0626     -4694.5384     -10.47195       18.01473       42.553868      8.7085892      7.5416648      30.001107      1970.3905    
        83   0             -238.71422     -4966.9572     -5173.9215     -5195.9999     -4530.9502     -10.490766      18.047557      42.587827      8.7077149      7.5409044      29.998453      1969.8198    
        84   0             -238.71603     -4811.3371     -5022.3174     -5044.0257     -4367.6682     -10.510766      18.081639      42.623763      8.7068407      7.5401441      29.995816      1969.2503    
        85   0             -238.71779     -4655.8987     -4870.8217     -4892.1554     -4204.719      -10.531992      18.117033      42.66177       8.7059665      7.5393837      29.993197      1968.6822    
        86   0             -238.71949     -4500.6627     -4719.4509     -4740.4054     -4042.1316     -10.554491      18.153803      42.701948      8.7050924      7.5386234      29.990599      1968.1154    
        87   0             -238.72114     -4345.6515     -4568.2234     -4588.7938     -3879.9374     -10.578311      18.192014      42.744406      8.7042183      7.537863       29.98802       1967.5502    
        88   0             -238.72273     -4190.8899     -4417.1588     -4437.3401     -3718.1707     -10.603506      18.231738      42.789259      8.7033443      7.5371027      29.985464      1966.9864    
        89   0             -238.72426     -4036.4044     -4266.2789     -4286.0657     -3556.8687     -10.630132      18.273053      42.836632      8.7024704      7.5363423      29.98293       1966.4243    
        90   0             -238.72574     -3882.2244     -4115.6071     -4134.9939     -3396.0723     -10.65825       18.316043      42.88666       8.7015965      7.535582       29.980421      1965.864     
        91   0             -238.72717     -3728.382      -3965.1695     -3984.1503     -3235.8263     -10.687925      18.360798      42.939487      8.7007226      7.5348216      29.977938      1965.3054    
        92   0             -238.72854     -3574.9125     -3814.9944     -3833.5632     -3076.1798     -10.719226      18.407416      42.995272      8.6998489      7.5340613      29.975482      1964.7488    
        93   0             -238.72986     -3421.8547     -3665.1132     -3683.2635     -2917.1873     -10.752231      18.456005      43.054185      8.6989752      7.5333009      29.973056      1964.1942    
        94   0             -238.73112     -3269.2518     -3515.5608     -3533.2857     -2758.9089     -10.78702       18.50668       43.116413      8.6981015      7.5325406      29.970662      1963.6419    
        95   0             -238.73233     -3117.1516     -3366.3756     -3383.6679     -2601.4112     -10.823683      18.559571      43.182158      8.697228       7.5317802      29.968301      1963.0918    
        96   0             -238.7335      -2965.6073     -3217.6007     -3234.4526     -2444.7686     -10.862316      18.614816      43.251644      8.6963545      7.5310199      29.965977      1962.5443    
        97   0             -238.73461     -2814.6786     -3069.2839     -3085.6874     -2289.0644     -10.903025      18.67257       43.325114      8.6954811      7.5302595      29.963692      1961.9994    
        98   0             -238.73567     -2664.4324     -2921.4794     -2937.4258     -2134.3921     -10.945922      18.733004      43.402839      8.6946079      7.5294992      29.961449      1961.4575    
        99   0             -238.73669     -2514.9443     -2774.2479     -2789.7279     -1980.8571     -10.991134      18.796306      43.485114      8.6937347      7.5287388      29.959253      1960.9187    
       100   0             -238.73766     -2366.2999     -2627.6584     -2642.6622     -1828.579      -11.038796      18.862686      43.57227       8.6928616      7.5279785      29.957106      1960.3833    
Loop time of 0.123457 on 48 procs for 100 steps with 60 atoms

96.2% CPU use with 48 MPI tasks x no OpenMP threads

Minimization stats:
  Stopping criterion = max iterations
  Energy initial, next-to-last, final = 
     -238.360949574056   -238.73668818951  -238.737655901936
  Force two-norm initial, final = 38.592949 5.5594705
  Force max component initial, final = 22.742579 3.2659431
  Final line search alpha, max atom move = 2.8999897e-05 9.4712014e-05
  Iterations, force evaluations = 100 100

MPI task timing breakdown:
Section |  min time  |  avg time  |  max time  |%varavg| %total
---------------------------------------------------------------
Pair    | 1.1168e-05 | 0.0052505  | 0.012456   |   4.1 |  4.25
Neigh   | 0          | 0          | 0          |   0.0 |  0.00
Comm    | 0.0047808  | 0.010653   | 0.01709    |   3.3 |  8.63
Output  | 0.0039979  | 0.0060512  | 0.099791   |  17.6 |  4.90
Modify  | 0          | 0          | 0          |   0.0 |  0.00
Other   |            | 0.1015     |            |       | 82.22

Nlocal:           1.25 ave           3 max           0 min
Histogram: 7 0 0 23 0 0 17 0 0 1
Nghost:        175.333 ave         183 max         156 min
Histogram: 5 5 2 0 0 0 0 0 13 23
Neighs:              0 ave           0 max           0 min
Histogram: 48 0 0 0 0 0 0 0 0 0
FullNghs:           46 ave         108 max           0 min
Histogram: 7 0 3 20 0 0 8 9 0 1

Total # of neighbors = 2208
Ave neighs/atom = 36.8
Neighbor list builds = 0
Dangerous builds = 0
Displacing atoms ...
System init for write_restart ...
Reading restart file ...
  restart file = 24 Mar 2022, LAMMPS = 24 Mar 2022
  restoring atom style atomic from restart
  triclinic box = (0.043463702 0.037770774 0.14287396) to (8.7363253 7.5657492 30.09998) with tilt (-4.3462811 0 0)
  3 by 2 by 8 MPI processor grid
  pair style nep stores no restart info
  60 atoms
  read_restart CPU = 0.017 seconds
Use the NEP4 potential with 3 atom types.
    type 0( Bi with Z = 83).
    type 1( Sb with Z = 51).
    type 2( Te with Z = 52).
    has universal ZBL with inner cutoff 1.25 A and outer cutoff 2.5 A.
    radial cutoff = 6 A.
    angular cutoff = 4 A.
    n_max_radial = 6.
    n_max_angular = 6.
    basis_size_radial = 8.
    basis_size_angular = 8.
    l_max_3body = 6.
    l_max_4body = 2.
    l_max_5body = 1.
    ANN = 56-60-1.
    number of neural network parameters = 10441.
    number of descriptor parameters = 1134.
    total number of parameters = 11575.
Changing box ...
  triclinic box = (0.043463702 0.037770774 0.14287396) to (8.7363166 7.5657492 30.09998) with tilt (-4.3462811 0 0)
  triclinic box = (0.043463702 0.037770774 0.14287396) to (8.7363166 7.5657492 30.09998) with tilt (-4.3462767 0 0)
  triclinic box = (0.043463702 0.037770774 0.14287396) to (8.7363166 7.5657492 30.09998) with tilt (-4.3462767 0 0)
Neighbor list info ...
  update every 1 steps, delay 0 steps, check yes
  max neighbors/atom: 2000, page size: 100000
  master list distance cutoff = 7
  ghost atom cutoff = 7
  1 neighbor lists, perpetual/occasional/extra = 1 0 0
  (1) pair nep, perpetual
      attributes: full, newton on
      pair build: full/nsq
      stencil: none
      bin: none
Setting up cg style minimization ...
  Unit style    : metal
  Current step  : 100
Per MPI rank memory allocation (min/avg/max) = 4.085 | 4.085 | 4.085 Mbytes
   Step          Temp          PotEng         Press           Pxx            Pyy            Pzz            Pxy            Pxz            Pyz             Lx             Ly             Lz           Volume    
       100   0             -238.73763     -2365.4722     -2626.4699     -2642.2279     -1827.7188     -11.0323        18.850657      43.211091      8.6928529      7.5279785      29.957106      1960.3813    
       101   0             -238.84183     -2725.1786     -2964.7076     -2961.5915     -2249.2368     -5.3095152      22.501192      44.474177      8.6928529      7.5279785      29.957106      1960.3813    
       102   0             -238.92768     -2981.298      -3208.0374     -3195.3722     -2540.4844     -1.2387457      26.067796      44.336134      8.6928529      7.5279785      29.957106      1960.3813    
       103   0             -238.99805     -3139.2393     -3364.4003     -3349.5375     -2703.7801      1.5414467      29.18739       43.201251      8.6928529      7.5279785      29.957106      1960.3813    
       104   0             -239.0554      -3201.322      -3441.2941     -3429.4877     -2733.1841      3.2673034      31.571619      41.472628      8.6928529      7.5279785      29.957106      1960.3813    
       105   0             -239.10184     -3172.8812     -3446.5468     -3440.7751     -2631.3218      4.0318567      33.051926      39.54944       8.6928529      7.5279785      29.957106      1960.3813    
       106   0             -239.13919     -3060.7713     -3388.6625     -3389.4561     -2404.1953      3.7637816      33.628794      37.788514      8.6928529      7.5279785      29.957106      1960.3813    
       107   0             -239.1691      -2876.2236     -3277.2712     -3282.702      -2068.6975      2.2272488      33.512845      36.435048      8.6928529      7.5279785      29.957106      1960.3813    
       108   0             -239.19302     -2630.9216     -3122.3991     -3128.4487     -1641.9169     -0.91919632     33.103083      35.546342      8.6928529      7.5279785      29.957106      1960.3813    
       109   0             -239.21184     -2343.0251     -2936.4915     -2937.9951     -1154.5886     -5.8719773      32.826169      34.96085       8.6928529      7.5279785      29.957106      1960.3813    
       110   0             -239.22434     -2076.9914     -2762.6966     -2756.4219     -711.85572     -11.313837      32.743417      34.463848      8.6928529      7.5279785      29.957106      1960.3813    
       111   0             -239.23312     -1827.3759     -2598.4668     -2582.8378     -300.82316     -16.863222      32.431268      34.15311       8.6928529      7.5279785      29.957106      1960.3813    
       112   0             -239.23922     -1589.9384     -2441.6078     -2415.5683      87.361042     -22.09251       31.092577      34.168833      8.6928529      7.5279785      29.957106      1960.3813    
       113   0             -239.24313     -1366.1331     -2293.9833     -2256.879       452.46288     -26.287045      27.351259      34.349062      8.6928529      7.5279785      29.957106      1960.3813    
       114   0             -239.24527     -1168.8693     -2165.7712     -2118.0352      777.19849     -27.784262      18.391184      33.758217      8.6928529      7.5279785      29.957106      1960.3813    
       115   0             -239.24644     -1138.0901     -2154.0986     -2103.9561      843.78428     -22.756093      4.6310129      30.362908      8.6928529      7.5279785      29.957106      1960.3813    
       116   0             -239.24704     -1209.3108     -2209.8337     -2156.2254      738.12671     -25.099203      14.449728      36.097829      8.6928529      7.5279785      29.957106      1960.3813    
       117   0             -239.24717     -1268.4611     -2259.9881     -2211.767       666.3717      -20.541496      3.6427449      28.26194       8.6928529      7.5279785      29.957106      1960.3813    
       118   0             -239.24744     -1181.8504     -2200.5245     -2152.4453      807.41854     -15.821405     -6.5885667      23.260642      8.6928529      7.5279785      29.957106      1960.3813    
       119   0             -239.24758     -1199.247      -2221.5787     -2160.1156      783.95339     -22.764074      11.883645      38.313374      8.6928529      7.5279785      29.957106      1960.3813    
       120   0             -239.24762     -1247.6818     -2257.7137     -2199.0521      713.72037     -21.95067       12.089702      36.882184      8.6928529      7.5279785      29.957106      1960.3813    
       121   0             -239.24764     -1248.9792     -2255.4457     -2199.3841      707.89207     -19.760476      9.1089624      34.94004       8.6928529      7.5279785      29.957106      1960.3813    
       122   0             -239.24765     -1263.5359     -2267.3423     -2210.6889      687.4235      -19.516192      9.4918702      35.798885      8.6928529      7.5279785      29.957106      1960.3813    
       123   0             -239.24766     -1262.8101     -2266.4414     -2210.9086      688.91961     -20.031218      11.506654      35.341626      8.6928529      7.5279785      29.957106      1960.3813    
       124   0             -239.24766     -1255.0504     -2260.2718     -2204.8777      699.99838     -20.042213      12.127755      35.347148      8.6928529      7.5279785      29.957106      1960.3813    
       125   0             -239.24767     -1252.8258     -2259.2525     -2203.0613      703.83643     -19.465         11.181996      35.93364       8.6928529      7.5279785      29.957106      1960.3813    
       126   0             -239.24767     -1250.4577     -2257.7455     -2201.1195      707.4918      -19.550704      11.55076       36.616228      8.6928529      7.5279785      29.957106      1960.3813    
       127   0             -239.24767     -1253.8465     -2260.2937     -2203.892       702.64602     -19.468652      11.537357      36.545141      8.6928529      7.5279785      29.957106      1960.3813    
       128   0             -239.24767     -1255.218      -2260.7334     -2205.1228      700.20204     -18.95057       10.700384      35.829445      8.6928529      7.5279785      29.957106      1960.3813    
       129   0             -239.24767     -1255.1976     -2260.6546     -2205.1131      700.17488     -18.700322      10.085422      35.785399      8.6928529      7.5279785      29.957106      1960.3813    
       130   0             -239.24767     -1255.9949     -2261.4583     -2205.7445      699.218       -18.847825      10.270176      35.986886      8.6928529      7.5279785      29.957106      1960.3813    
       131   0             -239.24767     -1254.539      -2260.474      -2204.5324      701.38958     -19.230383      11.012271      36.182452      8.6928529      7.5279785      29.957106      1960.3813    
       132   0             -239.24767     -1254.7707     -2260.6982     -2204.7162      701.10247     -19.302944      11.14339       36.215558      8.6928529      7.5279785      29.957106      1960.3813    
       133   0             -239.24767     -1254.6552     -2260.5966     -2204.6259      701.25686     -19.245512      11.008432      36.218048      8.6928529      7.5279785      29.957106      1960.3813    
       134   0             -239.24767     -1254.6213     -2260.564      -2204.5945      701.29462     -19.215994      10.948776      36.230324      8.6928529      7.5279785      29.957106      1960.3813    
       135   0             -239.24767     -1254.8018     -2260.6862     -2204.7481      701.02886     -19.236502      11.001372      36.2128        8.6928529      7.5279785      29.957106      1960.3813    
       136   0             -239.24767     -1254.747      -2260.6133     -2204.7126      701.08476     -19.232203      10.996816      36.188384      8.6928529      7.5279785      29.957106      1960.3813    
       137   0             -239.24767     -1254.8903     -2260.7302     -2204.8211      700.88046     -19.218418      10.961094      36.201653      8.6928529      7.5279785      29.957106      1960.3813    
       138   0             -239.24767     -1254.8377     -2260.6957     -2204.772       700.95453     -19.228958      10.979779      36.216953      8.6928529      7.5279785      29.957106      1960.3813    
       139   0             -239.24767     -1254.8409     -2260.7003     -2204.7746      700.95212     -19.244266      11.014208      36.219247      8.6928529      7.5279785      29.957106      1960.3813    
       140   0             -239.24767     -1254.8506     -2260.7117     -2204.7844      700.9443      -19.245488      11.018498      36.219203      8.6928529      7.5279785      29.957106      1960.3813    
       141   0             -239.24767     -1254.7971     -2260.6732     -2204.7396      701.02147     -19.241345      11.010806      36.223041      8.6928529      7.5279785      29.957106      1960.3813    
       142   0             -239.24767     -1254.8332     -2260.7032     -2204.769       700.97266     -19.239118      11.008363      36.223092      8.6928529      7.5279785      29.957106      1960.3813    
       143   0             -239.24767     -1254.8287     -2260.6958     -2204.7685      700.97821     -19.23947       11.012153      36.217541      8.6928529      7.5279785      29.957106      1960.3813    
       144   0             -239.24767     -1254.8371     -2260.7011     -2204.7758      700.96575     -19.238319      11.011393      36.215847      8.6928529      7.5279785      29.957106      1960.3813    
       145   0             -239.24767     -1254.8439     -2260.7071     -2204.7811      700.95643     -19.236831      11.007943      36.216597      8.6928529      7.5279785      29.957106      1960.3813    
       146   0             -239.24767     -1254.839      -2260.7036     -2204.7772      700.96367     -19.236165      11.006102      36.217022      8.6928529      7.5279785      29.957106      1960.3813    
       147   0             -239.24767     -1254.8405     -2260.7052     -2204.7786      700.96234     -19.237946      11.010294      36.217181      8.6928529      7.5279785      29.957106      1960.3813    
       148   0             -239.24767     -1254.8373     -2260.7031     -2204.7758      700.96694     -19.238331      11.011379      36.217705      8.6928529      7.5279785      29.957106      1960.3813    
       149   0             -239.24767     -1254.8382     -2260.704      -2204.7764      700.96579     -19.237794      11.010489      36.218222      8.6928529      7.5279785      29.957106      1960.3813    
       150   0             -239.24767     -1254.8407     -2260.7057     -2204.7788      700.96237     -19.237597      11.010236      36.217596      8.6928529      7.5279785      29.957106      1960.3813    
       151   0             -239.24767     -1254.8395     -2260.7045     -2204.7779      700.96407     -19.237471      11.010117      36.217385      8.6928529      7.5279785      29.957106      1960.3813    
       152   0             -239.24767     -1254.8411     -2260.7059     -2204.7792      700.96175     -19.237273      11.009933      36.217576      8.6928529      7.5279785      29.957106      1960.3813    
       153   0             -239.24767     -1254.8412     -2260.706      -2204.7792      700.96167     -19.237237      11.009878      36.217712      8.6928529      7.5279785      29.957106      1960.3813    
       154   0             -239.24767     -1254.8406     -2260.7055     -2204.7788      700.96263     -19.237293      11.009988      36.217558      8.6928529      7.5279785      29.957106      1960.3813    
       155   0             -239.24767     -1254.8411     -2260.7059     -2204.7792      700.96191     -19.237373      11.010184      36.217614      8.6928529      7.5279785      29.957106      1960.3813    
       156   0             -239.24767     -1254.8405     -2260.7055     -2204.7786      700.96279     -19.237437      11.01034       36.217805      8.6928529      7.5279785      29.957106      1960.3813    
       157   0             -239.24767     -1254.8406     -2260.7057     -2204.7787      700.96259     -19.237424      11.010306      36.217876      8.6928529      7.5279785      29.957106      1960.3813    
       158   0             -239.24767     -1254.8407     -2260.7057     -2204.7788      700.96242     -19.237407      11.010266      36.217838      8.6928529      7.5279785      29.957106      1960.3813    
       159   0             -239.24767     -1254.8407     -2260.7057     -2204.7789      700.96234     -19.237389      11.010223      36.217752      8.6928529      7.5279785      29.957106      1960.3813    
       160   0             -239.24767     -1254.8408     -2260.7058     -2204.7789      700.96221     -19.237399      11.010245      36.217767      8.6928529      7.5279785      29.957106      1960.3813    
       161   0             -239.24767     -1254.8406     -2260.7056     -2204.7788      700.96246     -19.237403      11.010255      36.217793      8.6928529      7.5279785      29.957106      1960.3813    
       162   0             -239.24767     -1254.8406     -2260.7056     -2204.7788      700.96246     -19.2374        11.010248      36.217788      8.6928529      7.5279785      29.957106      1960.3813    
       163   0             -239.24767     -1254.8406     -2260.7056     -2204.7787      700.9625      -19.237406      11.010259      36.217783      8.6928529      7.5279785      29.957106      1960.3813    
       164   0             -239.24767     -1254.8406     -2260.7056     -2204.7787      700.9625      -19.237414      11.010274      36.217798      8.6928529      7.5279785      29.957106      1960.3813    
       165   0             -239.24767     -1254.8407     -2260.7056     -2204.7788      700.96242     -19.237415      11.010275      36.217797      8.6928529      7.5279785      29.957106      1960.3813    
       166   0             -239.24767     -1254.8406     -2260.7056     -2204.7788      700.96244     -19.237411      11.010267      36.217785      8.6928529      7.5279785      29.957106      1960.3813    
       167   0             -239.24767     -1254.8406     -2260.7056     -2204.7788      700.96244     -19.23741       11.010264      36.217784      8.6928529      7.5279785      29.957106      1960.3813    
       168   0             -239.24767     -1254.8406     -2260.7056     -2204.7787      700.96247     -19.23741       11.010263      36.217786      8.6928529      7.5279785      29.957106      1960.3813    
       169   0             -239.24767     -1254.8406     -2260.7056     -2204.7787      700.96247     -19.237409      11.010262      36.217786      8.6928529      7.5279785      29.957106      1960.3813    
       170   0             -239.24767     -1254.8406     -2260.7056     -2204.7788      700.96246     -19.237409      11.010263      36.217784      8.6928529      7.5279785      29.957106      1960.3813    
       171   0             -239.24767     -1254.8406     -2260.7056     -2204.7788      700.96246     -19.23741       11.010265      36.217785      8.6928529      7.5279785      29.957106      1960.3813    
       172   0             -239.24767     -1254.8406     -2260.7056     -2204.7788      700.96245     -19.237411      11.010266      36.217786      8.6928529      7.5279785      29.957106      1960.3813    
       173   0             -239.24767     -1254.8406     -2260.7056     -2204.7788      700.96245     -19.237412      11.010267      36.217787      8.6928529      7.5279785      29.957106      1960.3813    
       174   0             -239.24767     -1254.8406     -2260.7056     -2204.7787      700.96246     -19.237411      11.010267      36.217786      8.6928529      7.5279785      29.957106      1960.3813    
       175   0             -239.24767     -1254.8406     -2260.7056     -2204.7788      700.96246     -19.237411      11.010266      36.217785      8.6928529      7.5279785      29.957106      1960.3813    
       176   0             -239.24767     -1254.8406     -2260.7056     -2204.7787      700.96246     -19.237411      11.010267      36.217786      8.6928529      7.5279785      29.957106      1960.3813    
       177   0             -239.24767     -1254.8406     -2260.7056     -2204.7788      700.96246     -19.237411      11.010266      36.217786      8.6928529      7.5279785      29.957106      1960.3813    
       178   0             -239.24767     -1254.8406     -2260.7056     -2204.7788      700.96245     -19.237411      11.010266      36.217786      8.6928529      7.5279785      29.957106      1960.3813    
       179   0             -239.24767     -1254.8406     -2260.7056     -2204.7788      700.96246     -19.237411      11.010266      36.217786      8.6928529      7.5279785      29.957106      1960.3813    
       180   0             -239.24767     -1254.8406     -2260.7056     -2204.7788      700.96245     -19.237411      11.010266      36.217786      8.6928529      7.5279785      29.957106      1960.3813    
       181   0             -239.24767     -1254.8406     -2260.7056     -2204.7788      700.96246     -19.237411      11.010266      36.217786      8.6928529      7.5279785      29.957106      1960.3813    
       182   0             -239.24767     -1254.8406     -2260.7056     -2204.7788      700.96246     -19.237411      11.010266      36.217786      8.6928529      7.5279785      29.957106      1960.3813    
       183   0             -239.24767     -1254.8406     -2260.7056     -2204.7788      700.96246     -19.237411      11.010266      36.217786      8.6928529      7.5279785      29.957106      1960.3813    
       184   0             -239.24767     -1254.8406     -2260.7056     -2204.7788      700.96246     -19.237411      11.010266      36.217786      8.6928529      7.5279785      29.957106      1960.3813    
       185   0             -239.24767     -1254.8406     -2260.7056     -2204.7788      700.96246     -19.237411      11.010266      36.217786      8.6928529      7.5279785      29.957106      1960.3813    
       186   0             -239.24767     -1254.8406     -2260.7056     -2204.7788      700.96246     -19.237411      11.010266      36.217786      8.6928529      7.5279785      29.957106      1960.3813    
       187   0             -239.24767     -1254.8406     -2260.7056     -2204.7788      700.96246     -19.237411      11.010266      36.217786      8.6928529      7.5279785      29.957106      1960.3813    
       188   0             -239.24767     -1254.8406     -2260.7056     -2204.7788      700.96246     -19.237411      11.010266      36.217786      8.6928529      7.5279785      29.957106      1960.3813    
       189   0             -239.24767     -1254.8406     -2260.7056     -2204.7788      700.96246     -19.237411      11.010266      36.217786      8.6928529      7.5279785      29.957106      1960.3813    
       190   0             -239.24767     -1254.8406     -2260.7056     -2204.7788      700.96246     -19.237411      11.010266      36.217786      8.6928529      7.5279785      29.957106      1960.3813    
       191   0             -239.24767     -1254.8406     -2260.7056     -2204.7788      700.96246     -19.237411      11.010266      36.217786      8.6928529      7.5279785      29.957106      1960.3813    
       192   0             -239.24767     -1254.8406     -2260.7056     -2204.7788      700.96246     -19.237411      11.010266      36.217786      8.6928529      7.5279785      29.957106      1960.3813    
       193   0             -239.24767     -1254.8406     -2260.7056     -2204.7788      700.96246     -19.237411      11.010266      36.217786      8.6928529      7.5279785      29.957106      1960.3813    
       194   0             -239.24767     -1254.8406     -2260.7056     -2204.7788      700.96246     -19.237411      11.010266      36.217786      8.6928529      7.5279785      29.957106      1960.3813    
       195   0             -239.24767     -1254.8406     -2260.7056     -2204.7788      700.96246     -19.237411      11.010266      36.217786      8.6928529      7.5279785      29.957106      1960.3813    
       196   0             -239.24767     -1254.8406     -2260.7056     -2204.7788      700.96246     -19.237411      11.010266      36.217786      8.6928529      7.5279785      29.957106      1960.3813    
       197   0             -239.24767     -1254.8406     -2260.7056     -2204.7788      700.96246     -19.237411      11.010266      36.217786      8.6928529      7.5279785      29.957106      1960.3813    
       198   0             -239.24767     -1254.8406     -2260.7056     -2204.7788      700.96246     -19.237411      11.010266      36.217786      8.6928529      7.5279785      29.957106      1960.3813    
       199   0             -239.24767     -1254.8406     -2260.7056     -2204.7788      700.96246     -19.237411      11.010266      36.217786      8.6928529      7.5279785      29.957106      1960.3813    
       200   0             -239.24767     -1254.8406     -2260.7056     -2204.7788      700.96246     -19.237411      11.010266      36.217786      8.6928529      7.5279785      29.957106      1960.3813    
Loop time of 0.0396235 on 48 procs for 100 steps with 60 atoms

98.9% CPU use with 48 MPI tasks x no OpenMP threads

Minimization stats:
  Stopping criterion = max iterations
  Energy initial, next-to-last, final = 
     -238.737633802095  -239.247670885784  -239.247670885784
  Force two-norm initial, final = 2.1435769 5.0154449e-13
  Force max component initial, final = 0.40815537 1.1582402e-13
  Final line search alpha, max atom move = 1 1.1582402e-13
  Iterations, force evaluations = 100 184

MPI task timing breakdown:
Section |  min time  |  avg time  |  max time  |%varavg| %total
---------------------------------------------------------------
Pair    | 1.9124e-05 | 0.009572   | 0.022828   |   6.2 | 24.16
Neigh   | 0          | 0          | 0          |   0.0 |  0.00
Comm    | 0.0066479  | 0.017626   | 0.029403   |   4.8 | 44.48
Output  | 0.0039958  | 0.0041078  | 0.0060647  |   0.4 | 10.37
Modify  | 0          | 0          | 0          |   0.0 |  0.00
Other   |            | 0.008317   |            |       | 20.99

Nlocal:           1.25 ave           3 max           0 min
Histogram: 9 0 0 20 0 0 17 0 0 2
Nghost:         180.75 ave         183 max         177 min
Histogram: 2 5 0 4 0 5 12 0 16 4
Neighs:              0 ave           0 max           0 min
Histogram: 48 0 0 0 0 0 0 0 0 0
FullNghs:           52 ave         126 max           0 min
Histogram: 9 0 0 20 0 0 17 0 0 2

Total # of neighbors = 2496
Ave neighs/atom = 41.6
Neighbor list builds = 0
Dangerous builds = 0
Reading restart file ...
  restart file = 24 Mar 2022, LAMMPS = 24 Mar 2022
  restoring atom style atomic from restart
  triclinic box = (0.043463702 0.037770774 0.14287396) to (8.7363253 7.5657492 30.09998) with tilt (-4.3462811 0 0)
  3 by 2 by 8 MPI processor grid
  pair style nep stores no restart info
  60 atoms
  read_restart CPU = 0.059 seconds
Use the NEP4 potential with 3 atom types.
    type 0( Bi with Z = 83).
    type 1( Sb with Z = 51).
    type 2( Te with Z = 52).
    has universal ZBL with inner cutoff 1.25 A and outer cutoff 2.5 A.
    radial cutoff = 6 A.
    angular cutoff = 4 A.
    n_max_radial = 6.
    n_max_angular = 6.
    basis_size_radial = 8.
    basis_size_angular = 8.
    l_max_3body = 6.
    l_max_4body = 2.
    l_max_5body = 1.
    ANN = 56-60-1.
    number of neural network parameters = 10441.
    number of descriptor parameters = 1134.
    total number of parameters = 11575.
Changing box ...
  triclinic box = (0.043463702 0.037770774 0.14287396) to (8.736334 7.5657492 30.09998) with tilt (-4.3462811 0 0)
  triclinic box = (0.043463702 0.037770774 0.14287396) to (8.736334 7.5657492 30.09998) with tilt (-4.3462854 0 0)
  triclinic box = (0.043463702 0.037770774 0.14287396) to (8.736334 7.5657492 30.09998) with tilt (-4.3462854 0 0)
Neighbor list info ...
  update every 1 steps, delay 0 steps, check yes
  max neighbors/atom: 2000, page size: 100000
  master list distance cutoff = 7
  ghost atom cutoff = 7
  1 neighbor lists, perpetual/occasional/extra = 1 0 0
  (1) pair nep, perpetual
      attributes: full, newton on
      pair build: full/nsq
      stencil: none
      bin: none
Setting up cg style minimization ...
  Unit style    : metal
  Current step  : 100
Per MPI rank memory allocation (min/avg/max) = 4.085 | 4.085 | 4.085 Mbytes
   Step          Temp          PotEng         Press           Pxx            Pyy            Pzz            Pxy            Pxz            Pyz             Lx             Ly             Lz           Volume    
       100   0             -238.73763     -2366.5364     -2628.2874     -2642.6781     -1828.6437     -11.032752      18.850794      43.808669      8.6928703      7.5279785      29.957106      1960.3852    
       101   0             -238.84183     -2726.1999     -2966.4797     -2962.0151     -2250.105      -5.3101295      22.501303      45.050955      8.6928703      7.5279785      29.957106      1960.3852    
       102   0             -238.92767     -2982.2847     -3209.7729     -3195.7759     -2541.3055     -1.2394288      26.06786       44.893603      8.6928703      7.5279785      29.957106      1960.3852    
       103   0             -238.99804     -3140.1991     -3366.1064     -3349.9272     -2704.5637      1.540765       29.187401      43.740532      8.6928703      7.5279785      29.957106      1960.3852    
       104   0             -239.05539     -3202.2617     -3442.9768     -3429.8685     -2733.9397      3.2666868      31.571574      41.994536      8.6928703      7.5279785      29.957106      1960.3852    
       105   0             -239.10182     -3173.8069     -3448.2107     -3441.1512     -2632.0589      4.0313802      33.051807      40.054554      8.6928703      7.5279785      29.957106      1960.3852    
       106   0             -239.13918     -3061.6868     -3390.3109     -3389.8308     -2404.9187      3.7635493      33.62855       38.277278      8.6928703      7.5279785      29.957106      1960.3852    
       107   0             -239.16909     -2877.1316     -3278.9061     -3283.0775     -2069.4111      2.2274047      33.512373      36.907877      8.6928703      7.5279785      29.957106      1960.3852    
       108   0             -239.19301     -2631.823      -3124.0211     -3128.8262     -1642.6218     -0.9184705      33.102226      36.003736      8.6928703      7.5279785      29.957106      1960.3852    
       109   0             -239.21184     -2343.9062     -2938.0923     -2938.3656     -1155.2606     -5.8707717      32.824754      35.403644      8.6928703      7.5279785      29.957106      1960.3852    
       110   0             -239.22434     -2077.8535     -2764.2781     -2756.7847     -712.49776     -11.312223      32.741445      34.895074      8.6928703      7.5279785      29.957106      1960.3852    
       111   0             -239.23312     -1828.2212     -2600.031      -2583.1938     -301.43892     -16.861222      32.428791      34.573991      8.6928703      7.5279785      29.957106      1960.3852    
       112   0             -239.23921     -1590.7682     -2443.1552     -2415.9183      86.769        -22.090158      31.089705      34.579567      8.6928703      7.5279785      29.957106      1960.3852    
       113   0             -239.24312     -1366.9468     -2295.5129     -2257.2226      451.8951      -26.284473      27.348262      34.749112      8.6928703      7.5279785      29.957106      1960.3852    
       114   0             -239.24527     -1169.6618     -2167.2782     -2118.369       776.66194     -27.781994      18.388858      34.146483      8.6928703      7.5279785      29.957106      1960.3852    
       115   0             -239.24643     -1138.7967     -2155.5409     -2104.2305      843.38132     -22.754748      4.6262247      30.743307      8.6928703      7.5279785      29.957106      1960.3852    
       116   0             -239.24703     -1210.1055     -2211.342      -2156.5669      737.59237     -25.094579      14.440718      36.478855      8.6928703      7.5279785      29.957106      1960.3852    
       117   0             -239.24717     -1269.1815     -2261.4476     -2212.0673      665.97056     -20.528288      3.6104475      28.628171      8.6928703      7.5279785      29.957106      1960.3852    
       118   0             -239.24743     -1182.392      -2201.8404     -2152.5779      807.24245     -15.827909     -6.5798946      23.657455      8.6928703      7.5279785      29.957106      1960.3852    
       119   0             -239.24757     -1200.0807     -2223.1319     -2160.4922      783.38193     -22.769207      11.893422      38.702754      8.6928703      7.5279785      29.957106      1960.3852    
       120   0             -239.24761     -1248.443      -2259.1868     -2199.3747      713.23248     -21.941496      12.076569      37.249328      8.6928703      7.5279785      29.957106      1960.3852    
       121   0             -239.24764     -1249.7289     -2256.9268     -2199.69        707.43014     -19.75712       9.1050234      35.328107      8.6928703      7.5279785      29.957106      1960.3852    
       122   0             -239.24764     -1264.3101     -2268.8424     -2211.0193      686.93148     -19.512906      9.4868606      36.181631      8.6928703      7.5279785      29.957106      1960.3852    
       123   0             -239.24765     -1263.5022     -2267.8716     -2211.1731      688.53794     -20.028675      11.503086      35.720934      8.6928703      7.5279785      29.957106      1960.3852    
       124   0             -239.24766     -1255.8269     -2261.7726     -2205.2055      699.49759     -20.03718       12.117877      35.731976      8.6928703      7.5279785      29.957106      1960.3852    
       125   0             -239.24766     -1253.5473     -2260.7064     -2203.3445      703.40908     -19.463732      11.179364      36.318197      8.6928703      7.5279785      29.957106      1960.3852    
       126   0             -239.24766     -1251.208      -2259.2211     -2201.4252      707.02252     -19.550467      11.550451      37.001346      8.6928703      7.5279785      29.957106      1960.3852    
       127   0             -239.24766     -1254.621      -2261.7851     -2204.2185      702.14047     -19.465093      11.530978      36.924726      8.6928703      7.5279785      29.957106      1960.3852    
       128   0             -239.24766     -1255.9466     -2262.1902     -2205.412       699.76247     -18.947287      10.692985      36.210895      8.6928703      7.5279785      29.957106      1960.3852    
       129   0             -239.24767     -1255.9495     -2262.1307     -2205.4213      699.70351     -18.697249      10.077747      36.167399      8.6928703      7.5279785      29.957106      1960.3852    
       130   0             -239.24767     -1256.7276     -2262.9193     -2206.0368      698.77332     -18.846813      10.266769      36.369398      8.6928703      7.5279785      29.957106      1960.3852    
       131   0             -239.24767     -1255.2746     -2261.9372     -2204.8269      700.94031     -19.229456      11.009344      36.564961      8.6928703      7.5279785      29.957106      1960.3852    
       132   0             -239.24767     -1255.5122     -2262.1657     -2205.0156      700.64462     -19.300777      11.13781       36.597637      8.6928703      7.5279785      29.957106      1960.3852    
       133   0             -239.24767     -1255.3913     -2262.0596     -2204.9208      700.80649     -19.243269      11.002718      36.600159      8.6928703      7.5279785      29.957106      1960.3852    
       134   0             -239.24767     -1255.3639     -2262.0325     -2204.8946      700.83524     -19.214361      10.944351      36.612548      8.6928703      7.5279785      29.957106      1960.3852    
       135   0             -239.24767     -1255.5396     -2262.1506     -2205.0444      700.57614     -19.234877      10.996878      36.594912      8.6928703      7.5279785      29.957106      1960.3852    
       136   0             -239.24767     -1255.4871     -2262.0797     -2205.0106      700.62889     -19.230345      10.991764      36.570618      8.6928703      7.5279785      29.957106      1960.3852    
       137   0             -239.24767     -1255.6303     -2262.1967     -2205.119       700.42479     -19.216589      10.956013      36.583952      8.6928703      7.5279785      29.957106      1960.3852    
       138   0             -239.24767     -1255.5761     -2262.1607     -2205.0687      700.50115     -19.227259      10.975065      36.599068      8.6928703      7.5279785      29.957106      1960.3852    
       139   0             -239.24767     -1255.5807     -2262.1664     -2205.0724      700.49676     -19.242438      11.009215      36.60135       8.6928703      7.5279785      29.957106      1960.3852    
       140   0             -239.24767     -1255.5892     -2262.1769     -2205.0812      700.49052     -19.243623      11.013423      36.601342      8.6928703      7.5279785      29.957106      1960.3852    
       141   0             -239.24767     -1255.5364     -2262.139      -2205.037       700.56671     -19.239475      11.005719      36.605221      8.6928703      7.5279785      29.957106      1960.3852    
       142   0             -239.24767     -1255.573      -2262.1693     -2205.0668      700.51718     -19.237306      11.003398      36.605178      8.6928703      7.5279785      29.957106      1960.3852    
       143   0             -239.24767     -1255.5677     -2262.1613     -2205.0657      700.52384     -19.237664      11.007195      36.599646      8.6928703      7.5279785      29.957106      1960.3852    
       144   0             -239.24767     -1255.5767     -2262.167      -2205.0735      700.51058     -19.236501      11.006396      36.59798       8.6928703      7.5279785      29.957106      1960.3852    
       145   0             -239.24767     -1255.5831     -2262.1728     -2205.0784      700.50181     -19.235004      11.002915      36.598729      8.6928703      7.5279785      29.957106      1960.3852    
       146   0             -239.24767     -1255.5783     -2262.1693     -2205.0746      700.50894     -19.234359      11.001129      36.599137      8.6928703      7.5279785      29.957106      1960.3852    
       147   0             -239.24767     -1255.5798     -2262.171      -2205.076       700.50758     -19.236145      11.005335      36.599303      8.6928703      7.5279785      29.957106      1960.3852    
       148   0             -239.24767     -1255.5766     -2262.1687     -2205.0732      700.51227     -19.236512      11.006379      36.599829      8.6928703      7.5279785      29.957106      1960.3852    
       149   0             -239.24767     -1255.5776     -2262.1698     -2205.0739      700.51098     -19.23598       11.005498      36.60034       8.6928703      7.5279785      29.957106      1960.3852    
       150   0             -239.24767     -1255.58       -2262.1714     -2205.0762      700.50765     -19.235784      11.005249      36.599708      8.6928703      7.5279785      29.957106      1960.3852    
       151   0             -239.24767     -1255.5787     -2262.1702     -2205.0753      700.50935     -19.235656      11.005127      36.599506      8.6928703      7.5279785      29.957106      1960.3852    
       152   0             -239.24767     -1255.5804     -2262.1716     -2205.0766      700.50696     -19.23546       11.004945      36.599698      8.6928703      7.5279785      29.957106      1960.3852    
       153   0             -239.24767     -1255.5804     -2262.1717     -2205.0766      700.50698     -19.235425      11.00489       36.599831      8.6928703      7.5279785      29.957106      1960.3852    
       154   0             -239.24767     -1255.5799     -2262.1712     -2205.0763      700.50787     -19.235481      11.005002      36.599677      8.6928703      7.5279785      29.957106      1960.3852    
       155   0             -239.24767     -1255.5804     -2262.1716     -2205.0766      700.50717     -19.235562      11.0052        36.599737      8.6928703      7.5279785      29.957106      1960.3852    
       156   0             -239.24767     -1255.5797     -2262.1712     -2205.076       700.50806     -19.235624      11.005352      36.599926      8.6928703      7.5279785      29.957106      1960.3852    
       157   0             -239.24767     -1255.5799     -2262.1714     -2205.0761      700.50784     -19.235611      11.005318      36.599997      8.6928703      7.5279785      29.957106      1960.3852    
       158   0             -239.24767     -1255.58       -2262.1714     -2205.0762      700.50769     -19.235594      11.005278      36.599957      8.6928703      7.5279785      29.957106      1960.3852    
       159   0             -239.24767     -1255.58       -2262.1714     -2205.0763      700.5076      -19.235577      11.005235      36.599872      8.6928703      7.5279785      29.957106      1960.3852    
       160   0             -239.24767     -1255.5801     -2262.1715     -2205.0763      700.50748     -19.235587      11.005257      36.599887      8.6928703      7.5279785      29.957106      1960.3852    
       161   0             -239.24767     -1255.5799     -2262.1713     -2205.0762      700.50773     -19.23559       11.005267      36.599914      8.6928703      7.5279785      29.957106      1960.3852    
       162   0             -239.24767     -1255.5799     -2262.1713     -2205.0762      700.50772     -19.235588      11.00526       36.599908      8.6928703      7.5279785      29.957106      1960.3852    
       163   0             -239.24767     -1255.5799     -2262.1713     -2205.0761      700.50777     -19.235594      11.005271      36.599904      8.6928703      7.5279785      29.957106      1960.3852    
       164   0             -239.24767     -1255.5799     -2262.1713     -2205.0761      700.50776     -19.235602      11.005286      36.599919      8.6928703      7.5279785      29.957106      1960.3852    
       165   0             -239.24767     -1255.5799     -2262.1713     -2205.0762      700.50768     -19.235603      11.005287      36.599917      8.6928703      7.5279785      29.957106      1960.3852    
       166   0             -239.24767     -1255.5799     -2262.1713     -2205.0762      700.5077      -19.235599      11.005279      36.599905      8.6928703      7.5279785      29.957106      1960.3852    
       167   0             -239.24767     -1255.5799     -2262.1713     -2205.0762      700.5077      -19.235597      11.005276      36.599904      8.6928703      7.5279785      29.957106      1960.3852    
       168   0             -239.24767     -1255.5799     -2262.1713     -2205.0762      700.50773     -19.235597      11.005275      36.599906      8.6928703      7.5279785      29.957106      1960.3852    
       169   0             -239.24767     -1255.5799     -2262.1713     -2205.0762      700.50773     -19.235597      11.005274      36.599906      8.6928703      7.5279785      29.957106      1960.3852    
       170   0             -239.24767     -1255.5799     -2262.1713     -2205.0762      700.50772     -19.235597      11.005275      36.599904      8.6928703      7.5279785      29.957106      1960.3852    
       171   0             -239.24767     -1255.5799     -2262.1713     -2205.0762      700.50772     -19.235598      11.005277      36.599905      8.6928703      7.5279785      29.957106      1960.3852    
       172   0             -239.24767     -1255.5799     -2262.1713     -2205.0762      700.50771     -19.235599      11.005278      36.599906      8.6928703      7.5279785      29.957106      1960.3852    
       173   0             -239.24767     -1255.5799     -2262.1713     -2205.0762      700.50771     -19.235599      11.005279      36.599907      8.6928703      7.5279785      29.957106      1960.3852    
       174   0             -239.24767     -1255.5799     -2262.1713     -2205.0762      700.50772     -19.235599      11.005279      36.599906      8.6928703      7.5279785      29.957106      1960.3852    
       175   0             -239.24767     -1255.5799     -2262.1713     -2205.0762      700.50772     -19.235599      11.005278      36.599905      8.6928703      7.5279785      29.957106      1960.3852    
       176   0             -239.24767     -1255.5799     -2262.1713     -2205.0762      700.50772     -19.235599      11.005279      36.599906      8.6928703      7.5279785      29.957106      1960.3852    
       177   0             -239.24767     -1255.5799     -2262.1713     -2205.0762      700.50772     -19.235599      11.005278      36.599906      8.6928703      7.5279785      29.957106      1960.3852    
       178   0             -239.24767     -1255.5799     -2262.1713     -2205.0762      700.50772     -19.235599      11.005278      36.599906      8.6928703      7.5279785      29.957106      1960.3852    
       179   0             -239.24767     -1255.5799     -2262.1713     -2205.0762      700.50772     -19.235599      11.005278      36.599906      8.6928703      7.5279785      29.957106      1960.3852    
       180   0             -239.24767     -1255.5799     -2262.1713     -2205.0762      700.50772     -19.235599      11.005278      36.599906      8.6928703      7.5279785      29.957106      1960.3852    
       181   0             -239.24767     -1255.5799     -2262.1713     -2205.0762      700.50772     -19.235599      11.005278      36.599906      8.6928703      7.5279785      29.957106      1960.3852    
       182   0             -239.24767     -1255.5799     -2262.1713     -2205.0762      700.50772     -19.235599      11.005278      36.599906      8.6928703      7.5279785      29.957106      1960.3852    
       183   0             -239.24767     -1255.5799     -2262.1713     -2205.0762      700.50772     -19.235599      11.005278      36.599906      8.6928703      7.5279785      29.957106      1960.3852    
       184   0             -239.24767     -1255.5799     -2262.1713     -2205.0762      700.50772     -19.235599      11.005278      36.599906      8.6928703      7.5279785      29.957106      1960.3852    
       185   0             -239.24767     -1255.5799     -2262.1713     -2205.0762      700.50772     -19.235599      11.005278      36.599906      8.6928703      7.5279785      29.957106      1960.3852    
       186   0             -239.24767     -1255.5799     -2262.1713     -2205.0762      700.50772     -19.235599      11.005278      36.599906      8.6928703      7.5279785      29.957106      1960.3852    
       187   0             -239.24767     -1255.5799     -2262.1713     -2205.0762      700.50772     -19.235599      11.005278      36.599906      8.6928703      7.5279785      29.957106      1960.3852    
       188   0             -239.24767     -1255.5799     -2262.1713     -2205.0762      700.50772     -19.235599      11.005278      36.599906      8.6928703      7.5279785      29.957106      1960.3852    
       189   0             -239.24767     -1255.5799     -2262.1713     -2205.0762      700.50772     -19.235599      11.005278      36.599906      8.6928703      7.5279785      29.957106      1960.3852    
       190   0             -239.24767     -1255.5799     -2262.1713     -2205.0762      700.50772     -19.235599      11.005278      36.599906      8.6928703      7.5279785      29.957106      1960.3852    
       191   0             -239.24767     -1255.5799     -2262.1713     -2205.0762      700.50772     -19.235599      11.005278      36.599906      8.6928703      7.5279785      29.957106      1960.3852    
       192   0             -239.24767     -1255.5799     -2262.1713     -2205.0762      700.50772     -19.235599      11.005278      36.599906      8.6928703      7.5279785      29.957106      1960.3852    
       193   0             -239.24767     -1255.5799     -2262.1713     -2205.0762      700.50772     -19.235599      11.005278      36.599906      8.6928703      7.5279785      29.957106      1960.3852    
       194   0             -239.24767     -1255.5799     -2262.1713     -2205.0762      700.50772     -19.235599      11.005278      36.599906      8.6928703      7.5279785      29.957106      1960.3852    
       195   0             -239.24767     -1255.5799     -2262.1713     -2205.0762      700.50772     -19.235599      11.005278      36.599906      8.6928703      7.5279785      29.957106      1960.3852    
       196   0             -239.24767     -1255.5799     -2262.1713     -2205.0762      700.50772     -19.235599      11.005278      36.599906      8.6928703      7.5279785      29.957106      1960.3852    
       197   0             -239.24767     -1255.5799     -2262.1713     -2205.0762      700.50772     -19.235599      11.005278      36.599906      8.6928703      7.5279785      29.957106      1960.3852    
       198   0             -239.24767     -1255.5799     -2262.1713     -2205.0762      700.50772     -19.235599      11.005278      36.599906      8.6928703      7.5279785      29.957106      1960.3852    
       199   0             -239.24767     -1255.5799     -2262.1713     -2205.0762      700.50772     -19.235599      11.005278      36.599906      8.6928703      7.5279785      29.957106      1960.3852    
       200   0             -239.24767     -1255.5799     -2262.1713     -2205.0762      700.50772     -19.235599      11.005278      36.599906      8.6928703      7.5279785      29.957106      1960.3852    
Loop time of 0.0370308 on 48 procs for 100 steps with 60 atoms

99.6% CPU use with 48 MPI tasks x no OpenMP threads

Minimization stats:
  Stopping criterion = max iterations
  Energy initial, next-to-last, final = 
     -238.737627372504  -239.247665351705  -239.247665351705
  Force two-norm initial, final = 2.1435594 5.0064012e-13
  Force max component initial, final = 0.40816236 1.3056223e-13
  Final line search alpha, max atom move = 1 1.3056223e-13
  Iterations, force evaluations = 100 184

MPI task timing breakdown:
Section |  min time  |  avg time  |  max time  |%varavg| %total
---------------------------------------------------------------
Pair    | 2.1141e-05 | 0.0093365  | 0.022285   |   6.2 | 25.21
Neigh   | 0          | 0          | 0          |   0.0 |  0.00
Comm    | 0.0064655  | 0.016991   | 0.028367   |   4.8 | 45.88
Output  | 0.0040079  | 0.0040516  | 0.0044797  |   0.1 | 10.94
Modify  | 0          | 0          | 0          |   0.0 |  0.00
Other   |            | 0.006651   |            |       | 17.96

Nlocal:           1.25 ave           3 max           0 min
Histogram: 9 0 0 20 0 0 17 0 0 2
Nghost:         180.75 ave         183 max         177 min
Histogram: 2 5 0 4 0 5 12 0 16 4
Neighs:              0 ave           0 max           0 min
Histogram: 48 0 0 0 0 0 0 0 0 0
FullNghs:           52 ave         126 max           0 min
Histogram: 9 0 0 20 0 0 17 0 0 2

Total # of neighbors = 2496
Ave neighs/atom = 41.6
Neighbor list builds = 0
Dangerous builds = 0
Reading restart file ...
  restart file = 24 Mar 2022, LAMMPS = 24 Mar 2022
  restoring atom style atomic from restart
  triclinic box = (0.043463702 0.037770774 0.14287396) to (8.7363253 7.5657492 30.09998) with tilt (-4.3462811 0 0)
  3 by 2 by 8 MPI processor grid
  pair style nep stores no restart info
  60 atoms
  read_restart CPU = 0.100 seconds
Use the NEP4 potential with 3 atom types.
    type 0( Bi with Z = 83).
    type 1( Sb with Z = 51).
    type 2( Te with Z = 52).
    has universal ZBL with inner cutoff 1.25 A and outer cutoff 2.5 A.
    radial cutoff = 6 A.
    angular cutoff = 4 A.
    n_max_radial = 6.
    n_max_angular = 6.
    basis_size_radial = 8.
    basis_size_angular = 8.
    l_max_3body = 6.
    l_max_4body = 2.
    l_max_5body = 1.
    ANN = 56-60-1.
    number of neural network parameters = 10441.
    number of descriptor parameters = 1134.
    total number of parameters = 11575.
Changing box ...
  triclinic box = (0.043463702 0.037770774 0.14287396) to (8.7363253 7.5657417 30.09998) with tilt (-4.3462811 0 0)
  triclinic box = (0.043463702 0.037770774 0.14287396) to (8.7363253 7.5657417 30.09998) with tilt (-4.3462811 0 0)
Neighbor list info ...
  update every 1 steps, delay 0 steps, check yes
  max neighbors/atom: 2000, page size: 100000
  master list distance cutoff = 7
  ghost atom cutoff = 7
  1 neighbor lists, perpetual/occasional/extra = 1 0 0
  (1) pair nep, perpetual
      attributes: full, newton on
      pair build: full/nsq
      stencil: none
      bin: none
Setting up cg style minimization ...
  Unit style    : metal
  Current step  : 100
Per MPI rank memory allocation (min/avg/max) = 4.085 | 4.085 | 4.085 Mbytes
   Step          Temp          PotEng         Press           Pxx            Pyy            Pzz            Pxy            Pxz            Pyz             Lx             Ly             Lz           Volume    
       100   0             -238.73763     -2365.472      -2627.1535     -2641.5438     -1827.7186     -11.032299      18.850684      43.808224      8.6928616      7.5279709      29.957106      1960.3813    
       101   0             -238.84183     -2725.1783     -2965.382      -2960.9164     -2249.2366     -5.309496       22.501255      45.050602      8.6928616      7.5279709      29.957106      1960.3813    
       102   0             -238.92768     -2981.2977     -3208.7034     -3194.7054     -2540.4843     -1.2387089      26.067873      44.893271      8.6928616      7.5279709      29.957106      1960.3813    
       103   0             -238.99805     -3139.239      -3365.0585     -3348.8785     -2703.7801      1.5415038      29.18746       43.740183      8.6928616      7.5279709      29.957106      1960.3813    
       104   0             -239.0554      -3201.3218     -3441.9449     -3428.8362     -2733.1841      3.2673861      31.57166       41.994163      8.6928616      7.5279709      29.957106      1960.3813    
       105   0             -239.10184     -3172.8812     -3447.1905     -3440.1309     -2631.3221      4.0319735      33.051913      40.054178      8.6928616      7.5279709      29.957106      1960.3813    
       106   0             -239.13919     -3060.7715     -3389.2992     -3388.8192     -2404.196       3.7639438      33.628696      38.276939      8.6928616      7.5279709      29.957106      1960.3813    
       107   0             -239.1691      -2876.224      -3277.901      -3282.0724     -2068.6986      2.2274715      33.512621      36.907624      8.6928616      7.5279709      29.957106      1960.3813    
       108   0             -239.19302     -2630.9222     -3123.022      -3127.8263     -1641.9184     -0.91889451     33.102683      36.003604      8.6928616      7.5279709      29.957106      1960.3813    
       109   0             -239.21184     -2343.0257     -2937.1076     -2937.3794     -1154.59       -5.8715785      32.825535      35.40365       8.6928616      7.5279709      29.957106      1960.3813    
       110   0             -239.22434     -2076.9919     -2763.3071     -2755.8117     -711.85689     -11.313335      32.742533      34.895223      8.6928616      7.5279709      29.957106      1960.3813    
       111   0             -239.23312     -1827.3763     -2599.0722     -2582.2326     -300.82425     -16.862602      32.430108      34.57434       8.6928616      7.5279709      29.957106      1960.3813    
       112   0             -239.23922     -1589.9388     -2442.208      -2414.9683      87.359918     -22.091748      31.091103      34.580149      8.6928616      7.5279709      29.957106      1960.3813    
       113   0             -239.24313     -1366.1336     -2294.5779     -2256.2845      452.46168     -26.286111      27.349409      34.749866      8.6928616      7.5279709      29.957106      1960.3813    
       114   0             -239.24527     -1168.8698     -2166.3595     -2117.4472      777.19713     -27.783105      18.388848      34.147078      8.6928616      7.5279709      29.957106      1960.3813    
       115   0             -239.24644     -1138.0892     -2154.6815     -2103.3713      843.78507     -22.754725      4.6281253      30.743776      8.6928616      7.5279709      29.957106      1960.3813    
       116   0             -239.24704     -1209.3122     -2210.4211     -2155.6398      738.12416     -25.097922      14.447104      36.484252      8.6928616      7.5279709      29.957106      1960.3813    
       117   0             -239.24717     -1268.459      -2260.5719     -2211.1806      666.37535     -20.539652      3.6386616      28.644972      8.6928616      7.5279709      29.957106      1960.3813    
       118   0             -239.24744     -1181.8396     -2201.0993     -2151.8522      807.43255     -15.82039      -6.5908893      23.642068      8.6928616      7.5279709      29.957106      1960.3813    
       119   0             -239.24758     -1199.2524     -2222.1679     -2159.5354      783.94608     -22.763081      11.881584      38.697104      8.6928616      7.5279709      29.957106      1960.3813    
       120   0             -239.24762     -1247.6818     -2258.2978     -2198.4674      713.7197      -21.949018      12.086602      37.265397      8.6928616      7.5279709      29.957106      1960.3813    
       121   0             -239.24764     -1248.9778     -2256.03       -2198.7973      707.89384     -19.759303      9.1066869      35.325173      8.6928616      7.5279709      29.957106      1960.3813    
       122   0             -239.24765     -1263.5365     -2267.9283     -2210.1038      687.42272     -19.514982      9.4894687      36.18415       8.6928616      7.5279709      29.957106      1960.3813    
       123   0             -239.24766     -1262.8066     -2267.0242     -2210.3199      688.92437     -20.03003       11.504282      35.727325      8.6928616      7.5279709      29.957106      1960.3813    
       124   0             -239.24766     -1255.0514     -2260.8585     -2204.2923      699.99646     -20.040918      12.125142      35.733382      8.6928616      7.5279709      29.957106      1960.3813    
       125   0             -239.24767     -1252.8239     -2259.8366     -2202.4737      703.83844     -19.463941      11.179836      36.319496      8.6928616      7.5279709      29.957106      1960.3813    
       126   0             -239.24767     -1250.4573     -2258.3305     -2200.5331      707.49178     -19.549683      11.548666      37.001902      8.6928616      7.5279709      29.957106      1960.3813    
       127   0             -239.24767     -1253.8473     -2260.8794     -2203.3067      702.64426     -19.46746       11.534939      36.93038       8.6928616      7.5279709      29.957106      1960.3813    
       128   0             -239.24767     -1255.2161     -2261.3169     -2204.5355      700.20419     -18.949427      10.697974      36.214542      8.6928616      7.5279709      29.957106      1960.3813    
       129   0             -239.24767     -1255.197      -2261.2392     -2204.5269      700.17512     -18.69916       10.082939      36.170415      8.6928616      7.5279709      29.957106      1960.3813    
       130   0             -239.24767     -1255.9933     -2262.0421     -2205.1574      699.21967     -18.846761      10.267896      36.372013      8.6928616      7.5279709      29.957106      1960.3813    
       131   0             -239.24767     -1254.5375     -2261.0581     -2203.9454      701.39096     -19.22933       11.010031      36.567771      8.6928616      7.5279709      29.957106      1960.3813    
       132   0             -239.24767     -1254.7695     -2261.2825     -2204.1295      701.10335     -19.301835      11.141026      36.600889      8.6928616      7.5279709      29.957106      1960.3813    
       133   0             -239.24767     -1254.6538     -2261.1807     -2204.0389      701.25817     -19.244405      11.006074      36.603353      8.6928616      7.5279709      29.957106      1960.3813    
       134   0             -239.24767     -1254.6202     -2261.1484     -2204.0077      701.29545     -19.214924      10.946497      36.615609      8.6928616      7.5279709      29.957106      1960.3813    
       135   0             -239.24767     -1254.8005     -2261.2703     -2204.1612      701.03007     -19.235433      10.999086      36.598074      8.6928616      7.5279709      29.957106      1960.3813    
       136   0             -239.24767     -1254.7458     -2261.1975     -2204.1258      701.08579     -19.23112       10.994498      36.573663      8.6928616      7.5279709      29.957106      1960.3813    
       137   0             -239.24767     -1254.8891     -2261.3145     -2204.2342      700.8815      -19.217334      10.958772      36.586935      8.6928616      7.5279709      29.957106      1960.3813    
       138   0             -239.24767     -1254.8364     -2261.2799     -2204.1851      700.9557      -19.227881      10.977474      36.602233      8.6928616      7.5279709      29.957106      1960.3813    
       139   0             -239.24767     -1254.8397     -2261.2845     -2204.1878      700.95317     -19.243181      11.011888      36.604536      8.6928616      7.5279709      29.957106      1960.3813    
       140   0             -239.24767     -1254.8493     -2261.2959     -2204.1975      700.94544     -19.244402      11.016175      36.604501      8.6928616      7.5279709      29.957106      1960.3813    
       141   0             -239.24767     -1254.7959     -2261.2574     -2204.1527      701.02256     -19.240259      11.008483      36.608338      8.6928616      7.5279709      29.957106      1960.3813    
       142   0             -239.24767     -1254.832      -2261.2874     -2204.1821      700.9737      -19.238036      11.006047      36.60838       8.6928616      7.5279709      29.957106      1960.3813    
       143   0             -239.24767     -1254.8274     -2261.28       -2204.1816      700.97932     -19.238387      11.009838      36.60283       8.6928616      7.5279709      29.957106      1960.3813    
       144   0             -239.24767     -1254.8358     -2261.2853     -2204.189       700.96681     -19.237236      11.009075      36.601136      8.6928616      7.5279709      29.957106      1960.3813    
       145   0             -239.24767     -1254.8427     -2261.2913     -2204.1942      700.95752     -19.235748      11.005624      36.601886      8.6928616      7.5279709      29.957106      1960.3813    
       146   0             -239.24767     -1254.8378     -2261.2878     -2204.1903      700.96476     -19.235082      11.003785      36.60231       8.6928616      7.5279709      29.957106      1960.3813    
       147   0             -239.24767     -1254.8392     -2261.2894     -2204.1917      700.96342     -19.236864      11.007978      36.60247       8.6928616      7.5279709      29.957106      1960.3813    
       148   0             -239.24767     -1254.8361     -2261.2873     -2204.1889      700.96803     -19.237248      11.009061      36.602995      8.6928616      7.5279709      29.957106      1960.3813    
       149   0             -239.24767     -1254.837      -2261.2882     -2204.1896      700.96687     -19.236711      11.008171      36.603511      8.6928616      7.5279709      29.957106      1960.3813    
       150   0             -239.24767     -1254.8395     -2261.2899     -2204.1919      700.96346     -19.236514      11.007918      36.602884      8.6928616      7.5279709      29.957106      1960.3813    
       151   0             -239.24767     -1254.8382     -2261.2887     -2204.191       700.96515     -19.236388      11.0078        36.602674      8.6928616      7.5279709      29.957106      1960.3813    
       152   0             -239.24767     -1254.8398     -2261.2901     -2204.1923      700.96284     -19.23619       11.007616      36.602865      8.6928616      7.5279709      29.957106      1960.3813    
       153   0             -239.24767     -1254.8399     -2261.2902     -2204.1924      700.96276     -19.236155      11.007561      36.603001      8.6928616      7.5279709      29.957106      1960.3813    
       154   0             -239.24767     -1254.8393     -2261.2897     -2204.192       700.96371     -19.23621       11.007671      36.602847      8.6928616      7.5279709      29.957106      1960.3813    
       155   0             -239.24767     -1254.8398     -2261.2901     -2204.1924      700.963       -19.236291      11.007867      36.602903      8.6928616      7.5279709      29.957106      1960.3813    
       156   0             -239.24767     -1254.8392     -2261.2897     -2204.1918      700.96388     -19.236354      11.008023      36.603094      8.6928616      7.5279709      29.957106      1960.3813    
       157   0             -239.24767     -1254.8393     -2261.2899     -2204.1918      700.96367     -19.236341      11.007989      36.603165      8.6928616      7.5279709      29.957106      1960.3813    
       158   0             -239.24767     -1254.8394     -2261.2899     -2204.1919      700.96351     -19.236324      11.007949      36.603126      8.6928616      7.5279709      29.957106      1960.3813    
       159   0             -239.24767     -1254.8395     -2261.2899     -2204.192       700.96343     -19.236307      11.007906      36.603041      8.6928616      7.5279709      29.957106      1960.3813    
       160   0             -239.24767     -1254.8396     -2261.29       -2204.1921      700.9633      -19.236316      11.007928      36.603056      8.6928616      7.5279709      29.957106      1960.3813    
       161   0             -239.24767     -1254.8394     -2261.2898     -2204.1919      700.96355     -19.23632       11.007938      36.603082      8.6928616      7.5279709      29.957106      1960.3813    
       162   0             -239.24767     -1254.8394     -2261.2898     -2204.1919      700.96355     -19.236317      11.00793       36.603077      8.6928616      7.5279709      29.957106      1960.3813    
       163   0             -239.24767     -1254.8394     -2261.2898     -2204.1919      700.96359     -19.236324      11.007941      36.603072      8.6928616      7.5279709      29.957106      1960.3813    
       164   0             -239.24767     -1254.8394     -2261.2898     -2204.1919      700.96359     -19.236331      11.007957      36.603087      8.6928616      7.5279709      29.957106      1960.3813    
       165   0             -239.24767     -1254.8394     -2261.2898     -2204.1919      700.96351     -19.236332      11.007958      36.603086      8.6928616      7.5279709      29.957106      1960.3813    
       166   0             -239.24767     -1254.8394     -2261.2898     -2204.1919      700.96352     -19.236329      11.00795       36.603074      8.6928616      7.5279709      29.957106      1960.3813    
       167   0             -239.24767     -1254.8394     -2261.2898     -2204.1919      700.96353     -19.236327      11.007946      36.603073      8.6928616      7.5279709      29.957106      1960.3813    
       168   0             -239.24767     -1254.8394     -2261.2898     -2204.1919      700.96355     -19.236327      11.007946      36.603075      8.6928616      7.5279709      29.957106      1960.3813    
       169   0             -239.24767     -1254.8394     -2261.2898     -2204.1919      700.96356     -19.236326      11.007945      36.603075      8.6928616      7.5279709      29.957106      1960.3813    
       170   0             -239.24767     -1254.8394     -2261.2898     -2204.1919      700.96354     -19.236327      11.007946      36.603073      8.6928616      7.5279709      29.957106      1960.3813    
       171   0             -239.24767     -1254.8394     -2261.2898     -2204.1919      700.96354     -19.236328      11.007948      36.603074      8.6928616      7.5279709      29.957106      1960.3813    
       172   0             -239.24767     -1254.8394     -2261.2898     -2204.1919      700.96354     -19.236328      11.007949      36.603075      8.6928616      7.5279709      29.957106      1960.3813    
       173   0             -239.24767     -1254.8394     -2261.2898     -2204.1919      700.96354     -19.236329      11.00795       36.603076      8.6928616      7.5279709      29.957106      1960.3813    
       174   0             -239.24767     -1254.8394     -2261.2898     -2204.1919      700.96354     -19.236329      11.007949      36.603075      8.6928616      7.5279709      29.957106      1960.3813    
       175   0             -239.24767     -1254.8394     -2261.2898     -2204.1919      700.96354     -19.236328      11.007949      36.603074      8.6928616      7.5279709      29.957106      1960.3813    
       176   0             -239.24767     -1254.8394     -2261.2898     -2204.1919      700.96354     -19.236328      11.007949      36.603075      8.6928616      7.5279709      29.957106      1960.3813    
       177   0             -239.24767     -1254.8394     -2261.2898     -2204.1919      700.96354     -19.236328      11.007949      36.603075      8.6928616      7.5279709      29.957106      1960.3813    
       178   0             -239.24767     -1254.8394     -2261.2898     -2204.1919      700.96354     -19.236328      11.007949      36.603075      8.6928616      7.5279709      29.957106      1960.3813    
       179   0             -239.24767     -1254.8394     -2261.2898     -2204.1919      700.96354     -19.236328      11.007949      36.603075      8.6928616      7.5279709      29.957106      1960.3813    
       180   0             -239.24767     -1254.8394     -2261.2898     -2204.1919      700.96354     -19.236328      11.007949      36.603075      8.6928616      7.5279709      29.957106      1960.3813    
       181   0             -239.24767     -1254.8394     -2261.2898     -2204.1919      700.96354     -19.236328      11.007949      36.603075      8.6928616      7.5279709      29.957106      1960.3813    
       182   0             -239.24767     -1254.8394     -2261.2898     -2204.1919      700.96354     -19.236328      11.007949      36.603075      8.6928616      7.5279709      29.957106      1960.3813    
       183   0             -239.24767     -1254.8394     -2261.2898     -2204.1919      700.96354     -19.236328      11.007949      36.603075      8.6928616      7.5279709      29.957106      1960.3813    
       184   0             -239.24767     -1254.8394     -2261.2898     -2204.1919      700.96354     -19.236328      11.007949      36.603075      8.6928616      7.5279709      29.957106      1960.3813    
       185   0             -239.24767     -1254.8394     -2261.2898     -2204.1919      700.96354     -19.236328      11.007949      36.603075      8.6928616      7.5279709      29.957106      1960.3813    
       186   0             -239.24767     -1254.8394     -2261.2898     -2204.1919      700.96354     -19.236328      11.007949      36.603075      8.6928616      7.5279709      29.957106      1960.3813    
       187   0             -239.24767     -1254.8394     -2261.2898     -2204.1919      700.96354     -19.236328      11.007949      36.603075      8.6928616      7.5279709      29.957106      1960.3813    
       188   0             -239.24767     -1254.8394     -2261.2898     -2204.1919      700.96354     -19.236328      11.007949      36.603075      8.6928616      7.5279709      29.957106      1960.3813    
       189   0             -239.24767     -1254.8394     -2261.2898     -2204.1919      700.96354     -19.236328      11.007949      36.603075      8.6928616      7.5279709      29.957106      1960.3813    
       190   0             -239.24767     -1254.8394     -2261.2898     -2204.1919      700.96354     -19.236328      11.007949      36.603075      8.6928616      7.5279709      29.957106      1960.3813    
       191   0             -239.24767     -1254.8394     -2261.2898     -2204.1919      700.96354     -19.236328      11.007949      36.603075      8.6928616      7.5279709      29.957106      1960.3813    
       192   0             -239.24767     -1254.8394     -2261.2898     -2204.1919      700.96354     -19.236328      11.007949      36.603075      8.6928616      7.5279709      29.957106      1960.3813    
       193   0             -239.24767     -1254.8394     -2261.2898     -2204.1919      700.96354     -19.236328      11.007949      36.603075      8.6928616      7.5279709      29.957106      1960.3813    
       194   0             -239.24767     -1254.8394     -2261.2898     -2204.1919      700.96354     -19.236328      11.007949      36.603075      8.6928616      7.5279709      29.957106      1960.3813    
       195   0             -239.24767     -1254.8394     -2261.2898     -2204.1919      700.96354     -19.236328      11.007949      36.603075      8.6928616      7.5279709      29.957106      1960.3813    
       196   0             -239.24767     -1254.8394     -2261.2898     -2204.1919      700.96354     -19.236328      11.007949      36.603075      8.6928616      7.5279709      29.957106      1960.3813    
       197   0             -239.24767     -1254.8394     -2261.2898     -2204.1919      700.96354     -19.236328      11.007949      36.603075      8.6928616      7.5279709      29.957106      1960.3813    
       198   0             -239.24767     -1254.8394     -2261.2898     -2204.1919      700.96354     -19.236328      11.007949      36.603075      8.6928616      7.5279709      29.957106      1960.3813    
       199   0             -239.24767     -1254.8394     -2261.2898     -2204.1919      700.96354     -19.236328      11.007949      36.603075      8.6928616      7.5279709      29.957106      1960.3813    
       200   0             -239.24767     -1254.8394     -2261.2898     -2204.1919      700.96354     -19.236328      11.007949      36.603075      8.6928616      7.5279709      29.957106      1960.3813    
Loop time of 0.14476 on 48 procs for 100 steps with 60 atoms

98.0% CPU use with 48 MPI tasks x no OpenMP threads

Minimization stats:
  Stopping criterion = max iterations
  Energy initial, next-to-last, final = 
     -238.737633820539  -239.247670816637  -239.247670816637
  Force two-norm initial, final = 2.1435766 5.0371193e-13
  Force max component initial, final = 0.40815536 1.2873036e-13
  Final line search alpha, max atom move = 1 1.2873036e-13
  Iterations, force evaluations = 100 184

MPI task timing breakdown:
Section |  min time  |  avg time  |  max time  |%varavg| %total
---------------------------------------------------------------
Pair    | 1.9572e-05 | 0.0094995  | 0.02276    |   6.2 |  6.56
Neigh   | 0          | 0          | 0          |   0.0 |  0.00
Comm    | 0.0062987  | 0.017494   | 0.028839   |   4.7 | 12.08
Output  | 0.0040628  | 0.0063352  | 0.11065    |  19.1 |  4.38
Modify  | 0          | 0          | 0          |   0.0 |  0.00
Other   |            | 0.1114     |            |       | 76.98

Nlocal:           1.25 ave           3 max           0 min
Histogram: 9 0 0 20 0 0 17 0 0 2
Nghost:         180.75 ave         183 max         177 min
Histogram: 2 5 0 4 0 5 12 0 16 4
Neighs:              0 ave           0 max           0 min
Histogram: 48 0 0 0 0 0 0 0 0 0
FullNghs:           52 ave         126 max           0 min
Histogram: 9 0 0 20 0 0 17 0 0 2

Total # of neighbors = 2496
Ave neighs/atom = 41.6
Neighbor list builds = 0
Dangerous builds = 0
Reading restart file ...
  restart file = 24 Mar 2022, LAMMPS = 24 Mar 2022
  restoring atom style atomic from restart
  triclinic box = (0.043463702 0.037770774 0.14287396) to (8.7363253 7.5657492 30.09998) with tilt (-4.3462811 0 0)
  3 by 2 by 8 MPI processor grid
  pair style nep stores no restart info
  60 atoms
  read_restart CPU = 0.054 seconds
Use the NEP4 potential with 3 atom types.
    type 0( Bi with Z = 83).
    type 1( Sb with Z = 51).
    type 2( Te with Z = 52).
    has universal ZBL with inner cutoff 1.25 A and outer cutoff 2.5 A.
    radial cutoff = 6 A.
    angular cutoff = 4 A.
    n_max_radial = 6.
    n_max_angular = 6.
    basis_size_radial = 8.
    basis_size_angular = 8.
    l_max_3body = 6.
    l_max_4body = 2.
    l_max_5body = 1.
    ANN = 56-60-1.
    number of neural network parameters = 10441.
    number of descriptor parameters = 1134.
    total number of parameters = 11575.
Changing box ...
  triclinic box = (0.043463702 0.037770774 0.14287396) to (8.7363253 7.5657568 30.09998) with tilt (-4.3462811 0 0)
  triclinic box = (0.043463702 0.037770774 0.14287396) to (8.7363253 7.5657568 30.09998) with tilt (-4.3462811 0 0)
Neighbor list info ...
  update every 1 steps, delay 0 steps, check yes
  max neighbors/atom: 2000, page size: 100000
  master list distance cutoff = 7
  ghost atom cutoff = 7
  1 neighbor lists, perpetual/occasional/extra = 1 0 0
  (1) pair nep, perpetual
      attributes: full, newton on
      pair build: full/nsq
      stencil: none
      bin: none
Setting up cg style minimization ...
  Unit style    : metal
  Current step  : 100
Per MPI rank memory allocation (min/avg/max) = 4.085 | 4.085 | 4.085 Mbytes
   Step          Temp          PotEng         Press           Pxx            Pyy            Pzz            Pxy            Pxz            Pyz             Lx             Ly             Lz           Volume    
       100   0             -238.73763     -2366.5366     -2627.6037     -2643.3623     -1828.6439     -11.032754      18.850768      43.211542      8.6928616      7.527986       29.957106      1960.3852    
       101   0             -238.84183     -2726.2002     -2965.8052     -2962.6902     -2250.1052     -5.3101487      22.50124       44.474536      8.6928616      7.527986       29.957106      1960.3852    
       102   0             -238.92767     -2982.285      -3209.1069     -3196.4427     -2541.3056     -1.2394655      26.067783      44.336471      8.6928616      7.527986       29.957106      1960.3852    
       103   0             -238.99804     -3140.1994     -3365.4482     -3350.5862     -2704.5638      1.5407079      29.187332      43.201604      8.6928616      7.527986       29.957106      1960.3852    
       104   0             -239.05539     -3202.2619     -3442.3261     -3430.5201     -2733.9396      3.266604       31.571533      41.473005      8.6928616      7.527986       29.957106      1960.3852    
       105   0             -239.10182     -3173.807      -3447.5671     -3441.7954     -2632.0586      4.0312634      33.05182       39.54982       8.6928616      7.527986       29.957106      1960.3852    
       106   0             -239.13918     -3061.6866     -3389.6742     -3390.4676     -2404.918       3.7633871      33.628649      37.788856      8.6928616      7.527986       29.957106      1960.3852    
       107   0             -239.16909     -2877.1311     -3278.2763     -3283.7072     -2069.41        2.2271819      33.512597      36.435304      8.6928616      7.527986       29.957106      1960.3852    
       108   0             -239.19301     -2631.8224     -3123.3982     -3129.4486     -1642.6203     -0.9187723      33.102626      35.546477      8.6928616      7.527986       29.957106      1960.3852    
       109   0             -239.21184     -2343.9056     -2937.4762     -2938.9813     -1155.2592     -5.8711705      32.825387      34.960847      8.6928616      7.527986       29.957106      1960.3852    
       110   0             -239.22434     -2077.8531     -2763.6676     -2757.3949     -712.49659     -11.312725      32.742329      34.463702      8.6928616      7.527986       29.957106      1960.3852    
       111   0             -239.23312     -1828.2208     -2599.4256     -2583.7989     -301.43783     -16.861842      32.429951      34.152765      8.6928616      7.527986       29.957106      1960.3852    
       112   0             -239.23921     -1590.7678     -2442.555      -2416.5184      86.770124     -22.09092       31.091179      34.168255      8.6928616      7.527986       29.957106      1960.3852    
       113   0             -239.24312     -1366.9464     -2294.9183     -2257.8171      451.89631     -26.285407      27.350112      34.348313      8.6928616      7.527986       29.957106      1960.3852    
       114   0             -239.24527     -1169.6612     -2166.6899     -2118.9571      776.6633      -27.783152      18.391195      33.757625      8.6928616      7.527986       29.957106      1960.3852    
       115   0             -239.24643     -1138.7976     -2154.958      -2104.8153      843.38053     -22.756116      4.6291125      30.362446      8.6928616      7.527986       29.957106      1960.3852    
       116   0             -239.24703     -1210.1041     -2210.7547     -2157.1525      737.59492     -25.09586       14.443343      36.092439      8.6928616      7.527986       29.957106      1960.3852    
       117   0             -239.24717     -1269.1836     -2260.8639     -2212.6537      665.96688     -20.530133      3.6145344      28.245156      8.6928616      7.527986       29.957106      1960.3852    
       118   0             -239.24743     -1182.4027     -2201.2656     -2153.1709      807.22847     -15.828923     -6.5775746      23.276035      8.6928616      7.527986       29.957106      1960.3852    
       119   0             -239.24757     -1200.0753     -2222.5428     -2161.0724      783.38921     -22.770204      11.895493      38.319041      8.6928616      7.527986       29.957106      1960.3852    
       120   0             -239.24761     -1248.4431     -2258.6028     -2199.9594      713.23303     -21.943148      12.079668      36.866121      8.6928616      7.527986       29.957106      1960.3852    
       121   0             -239.24764     -1249.7302     -2256.3424     -2200.2767      707.42841     -19.758293      9.1072986      34.942981      8.6928616      7.527986       29.957106      1960.3852    
       122   0             -239.24764     -1264.3095     -2268.2563     -2211.6044      686.93222     -19.514117      9.489263       35.796376      8.6928616      7.527986       29.957106      1960.3852    
       123   0             -239.24765     -1263.5058     -2267.2888     -2211.7618      688.53324     -20.029865      11.505463      35.335239      8.6928616      7.527986       29.957106      1960.3852    
       124   0             -239.24766     -1255.8258     -2261.1859     -2205.7909      699.49953     -20.038474      12.120488      35.34575       8.6928616      7.527986       29.957106      1960.3852    
       125   0             -239.24766     -1253.5492     -2260.1224     -2203.9322      703.40707     -19.464791      11.181522      35.932348      8.6928616      7.527986       29.957106      1960.3852    
       126   0             -239.24766     -1251.2084     -2258.6361     -2202.0116      707.02256     -19.551489      11.552547      36.615682      8.6928616      7.527986       29.957106      1960.3852    
       127   0             -239.24766     -1254.6203     -2261.1994     -2204.8038      702.14227     -19.466288      11.533401      36.539501      8.6928616      7.527986       29.957106      1960.3852    
       128   0             -239.24767     -1255.9486     -2261.6066     -2205.9994      699.76031     -18.948431      10.695396      35.825806      8.6928616      7.527986       29.957106      1960.3852    
       129   0             -239.24767     -1255.9501     -2261.546      -2206.0074      699.70328     -18.698411      10.080231      35.782392      8.6928616      7.527986       29.957106      1960.3852    
       130   0             -239.24767     -1256.7293     -2262.3355     -2206.6239      698.77163     -18.847878      10.26905       35.984279      8.6928616      7.527986       29.957106      1960.3852    
       131   0             -239.24767     -1255.2761     -2261.3532     -2205.4139      700.93894     -19.230509      11.011586      36.179649      8.6928616      7.527986       29.957106      1960.3852    
       132   0             -239.24767     -1255.5133     -2261.5813     -2205.6024      700.64373     -19.301887      11.140174      36.212314      8.6928616      7.527986       29.957106      1960.3852    
       133   0             -239.24767     -1255.3927     -2261.4756     -2205.5078      700.80518     -19.244377      11.005075      36.214862      8.6928616      7.527986       29.957106      1960.3852    
       134   0             -239.24767     -1255.365      -2261.4481     -2205.4813      700.83442     -19.215431      10.94663       36.227271      8.6928616      7.527986       29.957106      1960.3852    
       135   0             -239.24767     -1255.541      -2261.5665     -2205.6313      700.57493     -19.235947      10.999165      36.209645      8.6928616      7.527986       29.957106      1960.3852    
       136   0             -239.24767     -1255.4883     -2261.4954     -2205.5974      700.62786     -19.231428      10.994082      36.185346      8.6928616      7.527986       29.957106      1960.3852    
       137   0             -239.24767     -1255.6315     -2261.6124     -2205.7059      700.42374     -19.217673      10.958336      36.198678      8.6928616      7.527986       29.957106      1960.3852    
       138   0             -239.24767     -1255.5774     -2261.5765     -2205.6556      700.49998     -19.228337      10.977369      36.213796      8.6928616      7.527986       29.957106      1960.3852    
       139   0             -239.24767     -1255.5819     -2261.5822     -2205.6593      700.49572     -19.243523      11.011536      36.216068      8.6928616      7.527986       29.957106      1960.3852    
       140   0             -239.24767     -1255.5905     -2261.5927     -2205.6681      700.48938     -19.24471       11.015746      36.216052      8.6928616      7.527986       29.957106      1960.3852    
       141   0             -239.24767     -1255.5377     -2261.5548     -2205.6238      700.56563     -19.240561      11.008042      36.219932      8.6928616      7.527986       29.957106      1960.3852    
       142   0             -239.24767     -1255.5742     -2261.5851     -2205.6537      700.51614     -19.238389      11.005714      36.219898      8.6928616      7.527986       29.957106      1960.3852    
       143   0             -239.24767     -1255.569      -2261.5771     -2205.6525      700.52274     -19.238747      11.009511      36.214366      8.6928616      7.527986       29.957106      1960.3852    
       144   0             -239.24767     -1255.5779     -2261.5828     -2205.6603      700.50952     -19.237584      11.008714      36.212698      8.6928616      7.527986       29.957106      1960.3852    
       145   0             -239.24767     -1255.5844     -2261.5886     -2205.6653      700.50072     -19.236087      11.005235      36.213448      8.6928616      7.527986       29.957106      1960.3852    
       146   0             -239.24767     -1255.5796     -2261.5851     -2205.6615      700.50785     -19.235442      11.003446      36.213857      8.6928616      7.527986       29.957106      1960.3852    
       147   0             -239.24767     -1255.581      -2261.5868     -2205.6629      700.50649     -19.237227      11.007651      36.214021      8.6928616      7.527986       29.957106      1960.3852    
       148   0             -239.24767     -1255.5778     -2261.5845     -2205.6601      700.51118     -19.237595      11.008697      36.214547      8.6928616      7.527986       29.957106      1960.3852    
       149   0             -239.24767     -1255.5788     -2261.5856     -2205.6607      700.5099      -19.237063      11.007816      36.215059      8.6928616      7.527986       29.957106      1960.3852    
       150   0             -239.24767     -1255.5812     -2261.5872     -2205.6631      700.50656     -19.236867      11.007566      36.214427      8.6928616      7.527986       29.957106      1960.3852    
       151   0             -239.24767     -1255.58       -2261.586      -2205.6622      700.50827     -19.236739      11.007445      36.214225      8.6928616      7.527986       29.957106      1960.3852    
       152   0             -239.24767     -1255.5817     -2261.5874     -2205.6635      700.50587     -19.236543      11.007262      36.214417      8.6928616      7.527986       29.957106      1960.3852    
       153   0             -239.24767     -1255.5817     -2261.5875     -2205.6635      700.50589     -19.236508      11.007207      36.21455       8.6928616      7.527986       29.957106      1960.3852    
       154   0             -239.24767     -1255.5811     -2261.587      -2205.6631      700.50678     -19.236564      11.00732       36.214396      8.6928616      7.527986       29.957106      1960.3852    
       155   0             -239.24767     -1255.5816     -2261.5874     -2205.6635      700.50609     -19.236645      11.007518      36.214456      8.6928616      7.527986       29.957106      1960.3852    
       156   0             -239.24767     -1255.581      -2261.587      -2205.6629      700.50697     -19.236707      11.007669      36.214644      8.6928616      7.527986       29.957106      1960.3852    
       157   0             -239.24767     -1255.5811     -2261.5872     -2205.663       700.50675     -19.236694      11.007636      36.214716      8.6928616      7.527986       29.957106      1960.3852    
       158   0             -239.24767     -1255.5812     -2261.5872     -2205.6631      700.5066      -19.236677      11.007595      36.214675      8.6928616      7.527986       29.957106      1960.3852    
       159   0             -239.24767     -1255.5813     -2261.5872     -2205.6631      700.50652     -19.23666       11.007553      36.214591      8.6928616      7.527986       29.957106      1960.3852    
       160   0             -239.24767     -1255.5814     -2261.5873     -2205.6632      700.50639     -19.23667       11.007575      36.214606      8.6928616      7.527986       29.957106      1960.3852    
       161   0             -239.24767     -1255.5812     -2261.5871     -2205.663       700.50664     -19.236673      11.007585      36.214633      8.6928616      7.527986       29.957106      1960.3852    
       162   0             -239.24767     -1255.5812     -2261.5871     -2205.663       700.50663     -19.23667       11.007577      36.214627      8.6928616      7.527986       29.957106      1960.3852    
       163   0             -239.24767     -1255.5811     -2261.5871     -2205.663       700.50668     -19.236677      11.007588      36.214622      8.6928616      7.527986       29.957106      1960.3852    
       164   0             -239.24767     -1255.5811     -2261.5871     -2205.663       700.50667     -19.236685      11.007604      36.214638      8.6928616      7.527986       29.957106      1960.3852    
       165   0             -239.24767     -1255.5812     -2261.5871     -2205.663       700.5066      -19.236685      11.007605      36.214636      8.6928616      7.527986       29.957106      1960.3852    
       166   0             -239.24767     -1255.5812     -2261.5871     -2205.663       700.50661     -19.236682      11.007596      36.214624      8.6928616      7.527986       29.957106      1960.3852    
       167   0             -239.24767     -1255.5812     -2261.5871     -2205.663       700.50662     -19.23668       11.007593      36.214623      8.6928616      7.527986       29.957106      1960.3852    
       168   0             -239.24767     -1255.5812     -2261.5871     -2205.663       700.50664     -19.23668       11.007593      36.214625      8.6928616      7.527986       29.957106      1960.3852    
       169   0             -239.24767     -1255.5812     -2261.5871     -2205.663       700.50665     -19.236679      11.007592      36.214625      8.6928616      7.527986       29.957106      1960.3852    
       170   0             -239.24767     -1255.5812     -2261.5871     -2205.663       700.50663     -19.23668       11.007592      36.214623      8.6928616      7.527986       29.957106      1960.3852    
       171   0             -239.24767     -1255.5812     -2261.5871     -2205.663       700.50663     -19.236681      11.007594      36.214623      8.6928616      7.527986       29.957106      1960.3852    
       172   0             -239.24767     -1255.5812     -2261.5871     -2205.663       700.50662     -19.236681      11.007596      36.214625      8.6928616      7.527986       29.957106      1960.3852    
       173   0             -239.24767     -1255.5812     -2261.5871     -2205.663       700.50663     -19.236682      11.007597      36.214626      8.6928616      7.527986       29.957106      1960.3852    
       174   0             -239.24767     -1255.5812     -2261.5871     -2205.663       700.50663     -19.236682      11.007596      36.214624      8.6928616      7.527986       29.957106      1960.3852    
       175   0             -239.24767     -1255.5812     -2261.5871     -2205.663       700.50663     -19.236682      11.007596      36.214624      8.6928616      7.527986       29.957106      1960.3852    
       176   0             -239.24767     -1255.5812     -2261.5871     -2205.663       700.50663     -19.236682      11.007596      36.214625      8.6928616      7.527986       29.957106      1960.3852    
       177   0             -239.24767     -1255.5812     -2261.5871     -2205.663       700.50663     -19.236682      11.007596      36.214625      8.6928616      7.527986       29.957106      1960.3852    
       178   0             -239.24767     -1255.5812     -2261.5871     -2205.663       700.50663     -19.236682      11.007596      36.214625      8.6928616      7.527986       29.957106      1960.3852    
       179   0             -239.24767     -1255.5812     -2261.5871     -2205.663       700.50663     -19.236682      11.007596      36.214625      8.6928616      7.527986       29.957106      1960.3852    
       180   0             -239.24767     -1255.5812     -2261.5871     -2205.663       700.50663     -19.236682      11.007596      36.214625      8.6928616      7.527986       29.957106      1960.3852    
       181   0             -239.24767     -1255.5812     -2261.5871     -2205.663       700.50663     -19.236682      11.007596      36.214625      8.6928616      7.527986       29.957106      1960.3852    
       182   0             -239.24767     -1255.5812     -2261.5871     -2205.663       700.50663     -19.236682      11.007596      36.214625      8.6928616      7.527986       29.957106      1960.3852    
       183   0             -239.24767     -1255.5812     -2261.5871     -2205.663       700.50663     -19.236682      11.007596      36.214625      8.6928616      7.527986       29.957106      1960.3852    
       184   0             -239.24767     -1255.5812     -2261.5871     -2205.663       700.50663     -19.236682      11.007596      36.214625      8.6928616      7.527986       29.957106      1960.3852    
       185   0             -239.24767     -1255.5812     -2261.5871     -2205.663       700.50663     -19.236682      11.007596      36.214625      8.6928616      7.527986       29.957106      1960.3852    
       186   0             -239.24767     -1255.5812     -2261.5871     -2205.663       700.50663     -19.236682      11.007596      36.214625      8.6928616      7.527986       29.957106      1960.3852    
       187   0             -239.24767     -1255.5812     -2261.5871     -2205.663       700.50663     -19.236682      11.007596      36.214625      8.6928616      7.527986       29.957106      1960.3852    
       188   0             -239.24767     -1255.5812     -2261.5871     -2205.663       700.50663     -19.236682      11.007596      36.214625      8.6928616      7.527986       29.957106      1960.3852    
       189   0             -239.24767     -1255.5812     -2261.5871     -2205.663       700.50663     -19.236682      11.007596      36.214625      8.6928616      7.527986       29.957106      1960.3852    
       190   0             -239.24767     -1255.5812     -2261.5871     -2205.663       700.50663     -19.236682      11.007596      36.214625      8.6928616      7.527986       29.957106      1960.3852    
       191   0             -239.24767     -1255.5812     -2261.5871     -2205.663       700.50663     -19.236682      11.007596      36.214625      8.6928616      7.527986       29.957106      1960.3852    
       192   0             -239.24767     -1255.5812     -2261.5871     -2205.663       700.50663     -19.236682      11.007596      36.214625      8.6928616      7.527986       29.957106      1960.3852    
       193   0             -239.24767     -1255.5812     -2261.5871     -2205.663       700.50663     -19.236682      11.007596      36.214625      8.6928616      7.527986       29.957106      1960.3852    
       194   0             -239.24767     -1255.5812     -2261.5871     -2205.663       700.50663     -19.236682      11.007596      36.214625      8.6928616      7.527986       29.957106      1960.3852    
       195   0             -239.24767     -1255.5812     -2261.5871     -2205.663       700.50663     -19.236682      11.007596      36.214625      8.6928616      7.527986       29.957106      1960.3852    
       196   0             -239.24767     -1255.5812     -2261.5871     -2205.663       700.50663     -19.236682      11.007596      36.214625      8.6928616      7.527986       29.957106      1960.3852    
       197   0             -239.24767     -1255.5812     -2261.5871     -2205.663       700.50663     -19.236682      11.007596      36.214625      8.6928616      7.527986       29.957106      1960.3852    
       198   0             -239.24767     -1255.5812     -2261.5871     -2205.663       700.50663     -19.236682      11.007596      36.214625      8.6928616      7.527986       29.957106      1960.3852    
       199   0             -239.24767     -1255.5812     -2261.5871     -2205.663       700.50663     -19.236682      11.007596      36.214625      8.6928616      7.527986       29.957106      1960.3852    
       200   0             -239.24767     -1255.5812     -2261.5871     -2205.663       700.50663     -19.236682      11.007596      36.214625      8.6928616      7.527986       29.957106      1960.3852    
Loop time of 0.0618634 on 48 procs for 100 steps with 60 atoms

98.8% CPU use with 48 MPI tasks x no OpenMP threads

Minimization stats:
  Stopping criterion = max iterations
  Energy initial, next-to-last, final = 
     -238.737627354059  -239.247665420849  -239.247665420849
  Force two-norm initial, final = 2.1435597 5.0022194e-13
  Force max component initial, final = 0.40816237 1.065259e-13
  Final line search alpha, max atom move = 1 1.065259e-13
  Iterations, force evaluations = 100 184

MPI task timing breakdown:
Section |  min time  |  avg time  |  max time  |%varavg| %total
---------------------------------------------------------------
Pair    | 1.8332e-05 | 0.0095151  | 0.022706   |   6.2 | 15.38
Neigh   | 0          | 0          | 0          |   0.0 |  0.00
Comm    | 0.0064739  | 0.017336   | 0.028969   |   4.8 | 28.02
Output  | 0.003868   | 0.0044466  | 0.028917   |   5.4 |  7.19
Modify  | 0          | 0          | 0          |   0.0 |  0.00
Other   |            | 0.03057    |            |       | 49.41

Nlocal:           1.25 ave           3 max           0 min
Histogram: 9 0 0 20 0 0 17 0 0 2
Nghost:         180.75 ave         183 max         177 min
Histogram: 2 5 0 4 0 5 12 0 16 4
Neighs:              0 ave           0 max           0 min
Histogram: 48 0 0 0 0 0 0 0 0 0
FullNghs:           52 ave         126 max           0 min
Histogram: 9 0 0 20 0 0 17 0 0 2

Total # of neighbors = 2496
Ave neighs/atom = 41.6
Neighbor list builds = 0
Dangerous builds = 0
Reading restart file ...
  restart file = 24 Mar 2022, LAMMPS = 24 Mar 2022
  restoring atom style atomic from restart
  triclinic box = (0.043463702 0.037770774 0.14287396) to (8.7363253 7.5657492 30.09998) with tilt (-4.3462811 0 0)
  3 by 2 by 8 MPI processor grid
  pair style nep stores no restart info
  60 atoms
  read_restart CPU = 0.083 seconds
Use the NEP4 potential with 3 atom types.
    type 0( Bi with Z = 83).
    type 1( Sb with Z = 51).
    type 2( Te with Z = 52).
    has universal ZBL with inner cutoff 1.25 A and outer cutoff 2.5 A.
    radial cutoff = 6 A.
    angular cutoff = 4 A.
    n_max_radial = 6.
    n_max_angular = 6.
    basis_size_radial = 8.
    basis_size_angular = 8.
    l_max_3body = 6.
    l_max_4body = 2.
    l_max_5body = 1.
    ANN = 56-60-1.
    number of neural network parameters = 10441.
    number of descriptor parameters = 1134.
    total number of parameters = 11575.
Changing box ...
  triclinic box = (0.043463702 0.037770774 0.14287396) to (8.7363253 7.5657492 30.09995) with tilt (-4.3462811 0 0)
Neighbor list info ...
  update every 1 steps, delay 0 steps, check yes
  max neighbors/atom: 2000, page size: 100000
  master list distance cutoff = 7
  ghost atom cutoff = 7
  1 neighbor lists, perpetual/occasional/extra = 1 0 0
  (1) pair nep, perpetual
      attributes: full, newton on
      pair build: full/nsq
      stencil: none
      bin: none
Setting up cg style minimization ...
  Unit style    : metal
  Current step  : 100
Per MPI rank memory allocation (min/avg/max) = 4.085 | 4.085 | 4.085 Mbytes
   Step          Temp          PotEng         Press           Pxx            Pyy            Pzz            Pxy            Pxz            Pyz             Lx             Ly             Lz           Volume    
       100   0             -238.73763     -2365.4188     -2626.917      -2641.9912     -1827.3482     -11.032373      18.85038       43.50934       8.6928616      7.5279785      29.957076      1960.3813    
       101   0             -238.84183     -2725.14       -2965.1626     -2961.3717     -2248.8856     -5.3095499      22.500962      44.762001      8.6928616      7.5279785      29.957076      1960.3813    
       102   0             -238.92768     -2981.2697     -3208.4983     -3195.1667     -2540.1439     -1.2387682      26.067591      44.61424       8.6928616      7.5279785      29.957076      1960.3813    
       103   0             -238.99805     -3139.2199     -3364.8653     -3349.3442     -2703.4502      1.5414218      29.187179      43.47019       8.6928616      7.5279785      29.957076      1960.3813    
       104   0             -239.0554      -3201.3108     -3441.7618     -3429.3047     -2732.866       3.2672677      31.571369      41.732816      8.6928616      7.5279785      29.957076      1960.3813    
       105   0             -239.10184     -3172.8791     -3447.0155     -3440.6006     -2631.0212      4.0317999      33.0516        39.801197      8.6928616      7.5279785      29.957076      1960.3813    
       106   0             -239.13919     -3060.7741     -3389.1308     -3389.2883     -2403.9032      3.7636883      33.628363      38.032123      8.6928616      7.5279785      29.957076      1960.3813    
       107   0             -239.1691      -2876.2297     -3277.7386     -3282.5403     -2068.4104      2.2270806      33.512294      36.670783      8.6928616      7.5279785      29.957076      1960.3813    
       108   0             -239.19302     -2630.9319     -3122.8655     -3128.2928     -1641.6373     -0.91949771     33.102418      35.774516      8.6928616      7.5279785      29.957076      1960.3813    
       109   0             -239.21184     -2343.0461     -2936.9611     -2937.8487     -1154.3286     -5.8723574      32.825419      35.181926      8.6928616      7.5279785      29.957076      1960.3813    
       110   0             -239.22434     -2077.0224     -2763.1705     -2756.285      -711.6118      -11.314253      32.742598      34.67933       8.6928616      7.5279785      29.957076      1960.3813    
       111   0             -239.23312     -1827.4168     -2598.9453     -2582.7103     -300.59476     -16.863647      32.43034       34.363642      8.6928616      7.5279785      29.957076      1960.3813    
       112   0             -239.23921     -1589.9879     -2442.0903     -2415.4499      87.57645      -22.092887      31.091433      34.374529      8.6928616      7.5279785      29.957076      1960.3813    
       113   0             -239.24313     -1366.1925     -2294.4704     -2256.7705      452.66331     -26.287239      27.349648      34.549552      8.6928616      7.5279785      29.957076      1960.3813    
       114   0             -239.24527     -1168.9399     -2166.2634     -2117.9384      777.38205     -27.783861      18.388478      33.952551      8.6928616      7.5279785      29.957076      1960.3813    
       115   0             -239.24644     -1138.2237     -2154.6336     -2103.9087      843.87113     -22.754777      4.6290564      30.553021      8.6928616      7.5279785      29.957076      1960.3813    
       116   0             -239.24703     -1209.2907     -2210.2499     -2156.0524      738.43028     -25.100471      14.452191      36.294127      8.6928616      7.5279785      29.957076      1960.3813    
       117   0             -239.24717     -1268.649      -2260.5489     -2211.7024      666.30427     -20.577065      3.7285137      28.515024      8.6928616      7.5279785      29.957076      1960.3813    
       118   0             -239.24743     -1182.5968     -2201.5468     -2152.9142      806.67051     -15.804582     -6.6193209      23.418814      8.6928616      7.5279785      29.957076      1960.3813    
       119   0             -239.24757     -1198.9196     -2221.6979     -2159.6853      784.62454     -22.750642      11.852083      38.476522      8.6928616      7.5279785      29.957076      1960.3813    
       120   0             -239.24761     -1247.7075     -2258.1945     -2198.8856      713.95768     -21.985151      12.13667       37.1306        8.6928616      7.5279785      29.957076      1960.3813    
       121   0             -239.24764     -1249.0826     -2255.928      -2199.308       707.98832     -19.765426      9.1042203      35.11209       8.6928616      7.5279785      29.957076      1960.3813    
       122   0             -239.24765     -1263.5086     -2267.7235     -2210.4919      687.68955     -19.519162      9.4860918      35.988808      8.6928616      7.5279785      29.957076      1960.3813    
       123   0             -239.24765     -1263.0767     -2267.0757     -2210.9483      688.79377     -20.031654      11.496935      35.544919      8.6928616      7.5279785      29.957076      1960.3813    
       124   0             -239.24766     -1254.9904     -2260.6375     -2204.6712      700.3376      -20.054742      12.145521      35.533866      8.6928616      7.5279785      29.957076      1960.3813    
       125   0             -239.24767     -1252.9641     -2259.7892     -2203.015       703.91194     -19.465169      11.175251      36.123042      8.6928616      7.5279785      29.957076      1960.3813    
       126   0             -239.24767     -1250.5082     -2258.2133     -2201.0057      707.69443     -19.545979      11.534244      36.799927      8.6928616      7.5279785      29.957076      1960.3813    
       127   0             -239.24767     -1253.8196     -2260.7107     -2203.7115      702.96345     -19.474642      11.541353      36.747313      8.6928616      7.5279785      29.957076      1960.3813    
       128   0             -239.24767     -1255.362      -2261.2783     -2205.0806      700.27287     -18.95487       10.706779      36.024868      8.6928616      7.5279785      29.957076      1960.3813    
       129   0             -239.24767     -1255.2542     -2261.1278     -2204.9999      700.36519     -18.704661      10.094025      35.978469      8.6928616      7.5279785      29.957076      1960.3813    
       130   0             -239.24767     -1256.1173     -2261.9835     -2205.6858      699.31729     -18.84543       10.264554      36.178636      8.6928616      7.5279785      29.957076      1960.3813    
       131   0             -239.24767     -1254.6526     -2260.9935     -2204.4676      701.50329     -19.227916      11.005506      36.375008      8.6928616      7.5279785      29.957076      1960.3813    
       132   0             -239.24767     -1254.8597     -2261.1995     -2204.6311      701.25156     -19.304442      11.145266      36.409393      8.6928616      7.5279785      29.957076      1960.3813    
       133   0             -239.24767     -1254.7657     -2261.1151     -2204.5585      701.37637     -19.246964      11.010158      36.41131       8.6928616      7.5279785      29.957076      1960.3813    
       134   0             -239.24767     -1254.7081     -2261.0627     -2204.5082      701.44648     -19.214979      10.945364      36.422885      8.6928616      7.5279785      29.957076      1960.3813    
       135   0             -239.24767     -1254.9063     -2261.1995     -2204.6759      701.15636     -19.235568      10.998551      36.405965      8.6928616      7.5279785      29.957076      1960.3813    
       136   0             -239.24767     -1254.844      -2261.1201     -2204.6344      701.22257     -19.23221       10.99615       36.381184      8.6928616      7.5279785      29.957076      1960.3813    
       137   0             -239.24767     -1254.9863     -2261.2359     -2204.7423      701.01936     -19.21839       10.960608      36.394149      8.6928616      7.5279785      29.957076      1960.3813    
       138   0             -239.24767     -1254.9398     -2261.2068     -2204.6978      701.08517     -19.228571      10.978194      36.410165      8.6928616      7.5279785      29.957076      1960.3813    
       139   0             -239.24767     -1254.9377     -2261.2072     -2204.6961      701.09009     -19.244327      11.013599      36.412586      8.6928616      7.5279785      29.957076      1960.3813    
       140   0             -239.24767     -1254.9515     -2261.2219     -2204.7093      701.07656     -19.245668      11.018175      36.412453      8.6928616      7.5279785      29.957076      1960.3813    
       141   0             -239.24767     -1254.896      -2261.1816     -2204.663       701.15666     -19.241505      11.010451      36.416095      8.6928616      7.5279785      29.957076      1960.3813    
       142   0             -239.24767     -1254.9298     -2261.21       -2204.6904      701.11105     -19.239061      11.007548      36.416445      8.6928616      7.5279785      29.957076      1960.3813    
       143   0             -239.24767     -1254.9285     -2261.2052     -2204.6925      701.11224     -19.239401      11.011337      36.410846      8.6928616      7.5279785      29.957076      1960.3813    
       144   0             -239.24767     -1254.9346     -2261.2086     -2204.6981      701.10283     -19.238307      11.01073       36.409052      8.6928616      7.5279785      29.957076      1960.3813    
       145   0             -239.24767     -1254.9429     -2261.2157     -2204.7045      701.09157     -19.236851      11.007382      36.409797      8.6928616      7.5279785      29.957076      1960.3813    
       146   0             -239.24767     -1254.9377     -2261.212      -2204.7004      701.09916     -19.23611       11.005356      36.410274      8.6928616      7.5279785      29.957076      1960.3813    
       147   0             -239.24767     -1254.939      -2261.2135     -2204.7016      701.09806     -19.237874      11.009495      36.410425      8.6928616      7.5279785      29.957076      1960.3813    
       148   0             -239.24767     -1254.9361     -2261.2116     -2204.6991      701.10229     -19.238325      11.010734      36.410948      8.6928616      7.5279785      29.957076      1960.3813    
       149   0             -239.24767     -1254.9367     -2261.2123     -2204.6994      701.10157     -19.237771      11.00981       36.411477      8.6928616      7.5279785      29.957076      1960.3813    
       150   0             -239.24767     -1254.9395     -2261.2142     -2204.702       701.09783     -19.237567      11.009543      36.410877      8.6928616      7.5279785      29.957076      1960.3813    
       151   0             -239.24767     -1254.9382     -2261.2131     -2204.7011      701.09947     -19.237446      11.009431      36.410629      8.6928616      7.5279785      29.957076      1960.3813    
       152   0             -239.24767     -1254.9396     -2261.2142     -2204.7022      701.09748     -19.237243      11.009243      36.410818      8.6928616      7.5279785      29.957076      1960.3813    
       153   0             -239.24767     -1254.94       -2261.2145     -2204.7025      701.09706     -19.237207      11.009189      36.410964      8.6928616      7.5279785      29.957076      1960.3813    
       154   0             -239.24767     -1254.9392     -2261.2139     -2204.7019      701.09824     -19.23726       11.009291      36.410813      8.6928616      7.5279785      29.957076      1960.3813    
       155   0             -239.24767     -1254.9398     -2261.2144     -2204.7024      701.09746     -19.237338      11.009482      36.410852      8.6928616      7.5279785      29.957076      1960.3813    
       156   0             -239.24767     -1254.9392     -2261.214      -2204.7018      701.0983      -19.237406      11.009651      36.411053      8.6928616      7.5279785      29.957076      1960.3813    
       157   0             -239.24767     -1254.9393     -2261.2141     -2204.7018      701.09816     -19.237394      11.009618      36.411125      8.6928616      7.5279785      29.957076      1960.3813    
       158   0             -239.24767     -1254.9394     -2261.2142     -2204.702       701.09794     -19.237377      11.009579      36.411091      8.6928616      7.5279785      29.957076      1960.3813    
       159   0             -239.24767     -1254.9394     -2261.2141     -2204.702       701.0979      -19.237358      11.009533      36.411002      8.6928616      7.5279785      29.957076      1960.3813    
       160   0             -239.24767     -1254.9395     -2261.2142     -2204.7021      701.09775     -19.237368      11.009553      36.411013      8.6928616      7.5279785      29.957076      1960.3813    
       161   0             -239.24767     -1254.9393     -2261.2141     -2204.7019      701.09798     -19.237373      11.009567      36.411042      8.6928616      7.5279785      29.957076      1960.3813    
       162   0             -239.24767     -1254.9393     -2261.2141     -2204.7019      701.09801     -19.237369      11.009558      36.411038      8.6928616      7.5279785      29.957076      1960.3813    
       163   0             -239.24767     -1254.9393     -2261.214      -2204.7019      701.09803     -19.237376      11.009569      36.411033      8.6928616      7.5279785      29.957076      1960.3813    
       164   0             -239.24767     -1254.9393     -2261.214      -2204.7019      701.09805     -19.237383      11.009584      36.411047      8.6928616      7.5279785      29.957076      1960.3813    
       165   0             -239.24767     -1254.9393     -2261.2141     -2204.7019      701.09796     -19.237384      11.009586      36.411047      8.6928616      7.5279785      29.957076      1960.3813    
       166   0             -239.24767     -1254.9393     -2261.2141     -2204.7019      701.09797     -19.237381      11.009578      36.411034      8.6928616      7.5279785      29.957076      1960.3813    
       167   0             -239.24767     -1254.9393     -2261.214      -2204.7019      701.09798     -19.237379      11.009574      36.411032      8.6928616      7.5279785      29.957076      1960.3813    
       168   0             -239.24767     -1254.9393     -2261.214      -2204.7019      701.098       -19.237379      11.009574      36.411035      8.6928616      7.5279785      29.957076      1960.3813    
       169   0             -239.24767     -1254.9393     -2261.214      -2204.7019      701.09801     -19.237378      11.009573      36.411035      8.6928616      7.5279785      29.957076      1960.3813    
       170   0             -239.24767     -1254.9393     -2261.214      -2204.7019      701.09799     -19.237379      11.009573      36.411033      8.6928616      7.5279785      29.957076      1960.3813    
       171   0             -239.24767     -1254.9393     -2261.214      -2204.7019      701.09799     -19.23738       11.009575      36.411034      8.6928616      7.5279785      29.957076      1960.3813    
       172   0             -239.24767     -1254.9393     -2261.214      -2204.7019      701.09799     -19.23738       11.009577      36.411035      8.6928616      7.5279785      29.957076      1960.3813    
       173   0             -239.24767     -1254.9393     -2261.214      -2204.7019      701.09799     -19.237381      11.009578      36.411036      8.6928616      7.5279785      29.957076      1960.3813    
       174   0             -239.24767     -1254.9393     -2261.214      -2204.7019      701.09799     -19.237381      11.009577      36.411035      8.6928616      7.5279785      29.957076      1960.3813    
       175   0             -239.24767     -1254.9393     -2261.214      -2204.7019      701.09799     -19.23738       11.009577      36.411035      8.6928616      7.5279785      29.957076      1960.3813    
       176   0             -239.24767     -1254.9393     -2261.214      -2204.7019      701.09799     -19.23738       11.009577      36.411035      8.6928616      7.5279785      29.957076      1960.3813    
       177   0             -239.24767     -1254.9393     -2261.214      -2204.7019      701.09799     -19.23738       11.009577      36.411035      8.6928616      7.5279785      29.957076      1960.3813    
       178   0             -239.24767     -1254.9393     -2261.214      -2204.7019      701.09799     -19.23738       11.009577      36.411035      8.6928616      7.5279785      29.957076      1960.3813    
       179   0             -239.24767     -1254.9393     -2261.214      -2204.7019      701.09799     -19.23738       11.009577      36.411035      8.6928616      7.5279785      29.957076      1960.3813    
       180   0             -239.24767     -1254.9393     -2261.214      -2204.7019      701.09799     -19.23738       11.009577      36.411035      8.6928616      7.5279785      29.957076      1960.3813    
       181   0             -239.24767     -1254.9393     -2261.214      -2204.7019      701.09799     -19.23738       11.009577      36.411035      8.6928616      7.5279785      29.957076      1960.3813    
       182   0             -239.24767     -1254.9393     -2261.214      -2204.7019      701.09799     -19.23738       11.009577      36.411035      8.6928616      7.5279785      29.957076      1960.3813    
       183   0             -239.24767     -1254.9393     -2261.214      -2204.7019      701.09799     -19.23738       11.009577      36.411035      8.6928616      7.5279785      29.957076      1960.3813    
       184   0             -239.24767     -1254.9393     -2261.214      -2204.7019      701.09799     -19.23738       11.009577      36.411035      8.6928616      7.5279785      29.957076      1960.3813    
       185   0             -239.24767     -1254.9393     -2261.214      -2204.7019      701.09799     -19.23738       11.009577      36.411035      8.6928616      7.5279785      29.957076      1960.3813    
       186   0             -239.24767     -1254.9393     -2261.214      -2204.7019      701.09799     -19.23738       11.009577      36.411035      8.6928616      7.5279785      29.957076      1960.3813    
       187   0             -239.24767     -1254.9393     -2261.214      -2204.7019      701.09799     -19.23738       11.009577      36.411035      8.6928616      7.5279785      29.957076      1960.3813    
       188   0             -239.24767     -1254.9393     -2261.214      -2204.7019      701.09799     -19.23738       11.009577      36.411035      8.6928616      7.5279785      29.957076      1960.3813    
       189   0             -239.24767     -1254.9393     -2261.214      -2204.7019      701.09799     -19.23738       11.009577      36.411035      8.6928616      7.5279785      29.957076      1960.3813    
       190   0             -239.24767     -1254.9393     -2261.214      -2204.7019      701.09799     -19.23738       11.009577      36.411035      8.6928616      7.5279785      29.957076      1960.3813    
       191   0             -239.24767     -1254.9393     -2261.214      -2204.7019      701.09799     -19.23738       11.009577      36.411035      8.6928616      7.5279785      29.957076      1960.3813    
       192   0             -239.24767     -1254.9393     -2261.214      -2204.7019      701.09799     -19.23738       11.009577      36.411035      8.6928616      7.5279785      29.957076      1960.3813    
       193   0             -239.24767     -1254.9393     -2261.214      -2204.7019      701.09799     -19.23738       11.009577      36.411035      8.6928616      7.5279785      29.957076      1960.3813    
       194   0             -239.24767     -1254.9393     -2261.214      -2204.7019      701.09799     -19.23738       11.009577      36.411035      8.6928616      7.5279785      29.957076      1960.3813    
       195   0             -239.24767     -1254.9393     -2261.214      -2204.7019      701.09799     -19.23738       11.009577      36.411035      8.6928616      7.5279785      29.957076      1960.3813    
       196   0             -239.24767     -1254.9393     -2261.214      -2204.7019      701.09799     -19.23738       11.009577      36.411035      8.6928616      7.5279785      29.957076      1960.3813    
       197   0             -239.24767     -1254.9393     -2261.214      -2204.7019      701.09799     -19.23738       11.009577      36.411035      8.6928616      7.5279785      29.957076      1960.3813    
       198   0             -239.24767     -1254.9393     -2261.214      -2204.7019      701.09799     -19.23738       11.009577      36.411035      8.6928616      7.5279785      29.957076      1960.3813    
       199   0             -239.24767     -1254.9393     -2261.214      -2204.7019      701.09799     -19.23738       11.009577      36.411035      8.6928616      7.5279785      29.957076      1960.3813    
       200   0             -239.24767     -1254.9393     -2261.214      -2204.7019      701.09799     -19.23738       11.009577      36.411035      8.6928616      7.5279785      29.957076      1960.3813    
Loop time of 0.0379004 on 48 procs for 100 steps with 60 atoms

99.6% CPU use with 48 MPI tasks x no OpenMP threads

Minimization stats:
  Stopping criterion = max iterations
  Energy initial, next-to-last, final = 
     -238.737632824263  -239.247667261569  -239.247667261569
  Force two-norm initial, final = 2.1435791 5.1599191e-13
  Force max component initial, final = 0.40815138 9.7366559e-14
  Final line search alpha, max atom move = 1 9.7366559e-14
  Iterations, force evaluations = 100 184

MPI task timing breakdown:
Section |  min time  |  avg time  |  max time  |%varavg| %total
---------------------------------------------------------------
Pair    | 1.9788e-05 | 0.0095501  | 0.023112   |   6.2 | 25.20
Neigh   | 0          | 0          | 0          |   0.0 |  0.00
Comm    | 0.0063392  | 0.017594   | 0.029206   |   4.8 | 46.42
Output  | 0.0039259  | 0.0039937  | 0.0044146  |   0.1 | 10.54
Modify  | 0          | 0          | 0          |   0.0 |  0.00
Other   |            | 0.006763   |            |       | 17.84

Nlocal:           1.25 ave           3 max           0 min
Histogram: 9 0 0 20 0 0 17 0 0 2
Nghost:         180.75 ave         183 max         177 min
Histogram: 2 5 0 4 0 5 12 0 16 4
Neighs:              0 ave           0 max           0 min
Histogram: 48 0 0 0 0 0 0 0 0 0
FullNghs:           52 ave         126 max           0 min
Histogram: 9 0 0 20 0 0 17 0 0 2

Total # of neighbors = 2496
Ave neighs/atom = 41.6
Neighbor list builds = 0
Dangerous builds = 0
Reading restart file ...
  restart file = 24 Mar 2022, LAMMPS = 24 Mar 2022
  restoring atom style atomic from restart
  triclinic box = (0.043463702 0.037770774 0.14287396) to (8.7363253 7.5657492 30.09998) with tilt (-4.3462811 0 0)
  3 by 2 by 8 MPI processor grid
  pair style nep stores no restart info
  60 atoms
  read_restart CPU = 0.079 seconds
Use the NEP4 potential with 3 atom types.
    type 0( Bi with Z = 83).
    type 1( Sb with Z = 51).
    type 2( Te with Z = 52).
    has universal ZBL with inner cutoff 1.25 A and outer cutoff 2.5 A.
    radial cutoff = 6 A.
    angular cutoff = 4 A.
    n_max_radial = 6.
    n_max_angular = 6.
    basis_size_radial = 8.
    basis_size_angular = 8.
    l_max_3body = 6.
    l_max_4body = 2.
    l_max_5body = 1.
    ANN = 56-60-1.
    number of neural network parameters = 10441.
    number of descriptor parameters = 1134.
    total number of parameters = 11575.
Changing box ...
  triclinic box = (0.043463702 0.037770774 0.14287396) to (8.7363253 7.5657492 30.10001) with tilt (-4.3462811 0 0)
Neighbor list info ...
  update every 1 steps, delay 0 steps, check yes
  max neighbors/atom: 2000, page size: 100000
  master list distance cutoff = 7
  ghost atom cutoff = 7
  1 neighbor lists, perpetual/occasional/extra = 1 0 0
  (1) pair nep, perpetual
      attributes: full, newton on
      pair build: full/nsq
      stencil: none
      bin: none
Setting up cg style minimization ...
  Unit style    : metal
  Current step  : 100
Per MPI rank memory allocation (min/avg/max) = 4.085 | 4.085 | 4.085 Mbytes
   Step          Temp          PotEng         Press           Pxx            Pyy            Pzz            Pxy            Pxz            Pyz             Lx             Ly             Lz           Volume    
       100   0             -238.73763     -2366.5898     -2627.8403     -2642.9149     -1829.0143     -11.03268       18.851072      43.510423      8.6928616      7.5279785      29.957136      1960.3852    
       101   0             -238.84183     -2726.2386     -2966.0246     -2962.2349     -2250.4562     -5.3100948      22.501532      44.763134      8.6928616      7.5279785      29.957136      1960.3852    
       102   0             -238.92767     -2982.3131     -3209.312      -3195.9814     -2541.6459     -1.2394062      26.068065      44.615498      8.6928616      7.5279785      29.957136      1960.3852    
       103   0             -238.99804     -3140.2185     -3365.6413     -3350.1205     -2704.8936      1.5407899      29.187612      43.471594      8.6928616      7.5279785      29.957136      1960.3852    
       104   0             -239.05539     -3202.2729     -3442.5092     -3430.0516     -2734.2578      3.2667225      31.571824      41.73435       8.6928616      7.5279785      29.957136      1960.3852    
       105   0             -239.10182     -3173.8091     -3447.742      -3441.3258     -2632.3594      4.031437       33.052134      39.802798      8.6928616      7.5279785      29.957136      1960.3852    
       106   0             -239.13918     -3061.684      -3389.8426     -3389.9985     -2405.2109      3.7636426      33.628981      38.03367       8.6928616      7.5279785      29.957136      1960.3852    
       107   0             -239.16909     -2877.1254     -3278.4387     -3283.2393     -2069.6982      2.2275728      33.512924      36.672143      8.6928616      7.5279785      29.957136      1960.3852    
       108   0             -239.19301     -2631.8128     -3123.5547     -3128.9821     -1642.9015     -0.91816918     33.102891      35.775563      8.6928616      7.5279785      29.957136      1960.3852    
       109   0             -239.21184     -2343.8851     -2937.6227     -2938.512      -1155.5206     -5.8703916      32.825503      35.182569      8.6928616      7.5279785      29.957136      1960.3852    
       110   0             -239.22434     -2077.8225     -2763.8042     -2756.9217     -712.74168     -11.311807      32.742264      34.679594      8.6928616      7.5279785      29.957136      1960.3852    
       111   0             -239.23312     -1828.1804     -2599.5525     -2583.3212     -301.66732     -16.860797      32.429719      34.363461      8.6928616      7.5279785      29.957136      1960.3852    
       112   0             -239.23921     -1590.7186     -2442.6727     -2416.0368      86.553591     -22.089781      31.090849      34.373872      8.6928616      7.5279785      29.957136      1960.3852    
       113   0             -239.24313     -1366.8874     -2295.0258     -2257.3311      451.69467     -26.284278      27.349872      34.548624      8.6928616      7.5279785      29.957136      1960.3852    
       114   0             -239.24527     -1169.5912     -2166.786      -2118.4658      776.47838     -27.782396      18.391564      33.95215       8.6928616      7.5279785      29.957136      1960.3852    
       115   0             -239.24644     -1138.6631     -2155.0059     -2104.278       843.29442     -22.756064      4.6281823      30.553197      8.6928616      7.5279785      29.957136      1960.3852    
       116   0             -239.24703     -1210.1255     -2210.9257     -2156.7397      737.28905     -25.093311      14.438256      36.282562      8.6928616      7.5279785      29.957136      1960.3852    
       117   0             -239.24717     -1268.9871     -2260.8821     -2212.1275      666.04812     -20.492284      3.5236387      28.374405      8.6928616      7.5279785      29.957136      1960.3852    
       118   0             -239.24743     -1181.6512     -2200.8228     -2152.1132      807.98237     -15.845021     -6.5483513      23.499854      8.6928616      7.5279785      29.957136      1960.3852    
       119   0             -239.24758     -1200.4012     -2223.0059     -2160.9183      782.72066     -22.781336      11.921659      38.536765      8.6928616      7.5279785      29.957136      1960.3852    
       120   0             -239.24762     -1248.3855     -2258.6797     -2199.5148      713.03792     -21.906888      12.029643      37.001073      8.6928616      7.5279785      29.957136      1960.3852    
       121   0             -239.24764     -1249.6365     -2256.4535     -2199.7746      707.31872     -19.752297      9.1099347      35.156512      8.6928616      7.5279785      29.957136      1960.3852    
       122   0             -239.24765     -1264.3284     -2268.4534     -2211.2091      686.67751     -19.509898      9.4923959      35.991215      8.6928616      7.5279785      29.957136      1960.3852    
       123   0             -239.24765     -1263.2489     -2267.2481     -2211.1431      688.64448     -20.027796      11.511475      35.518423      8.6928616      7.5279785      29.957136      1960.3852    
       124   0             -239.24766     -1255.8905     -2261.4092     -2205.4151      699.15283     -20.024701      12.100497      35.54489       8.6928616      7.5279785      29.957136      1960.3852    
       125   0             -239.24767     -1253.4076     -2260.1682     -2203.3894      703.33478     -19.463842      11.1868        36.128838      8.6928616      7.5279785      29.957136      1960.3852    
       126   0             -239.24767     -1251.1632     -2258.7576     -2201.5436      706.81168     -19.554938      11.566482      36.81724       8.6928616      7.5279785      29.957136      1960.3852    
       127   0             -239.24767     -1254.6561     -2261.3731     -2204.4059      701.81087     -19.458058      11.525382      36.720908      8.6928616      7.5279785      29.957136      1960.3852    
       128   0             -239.24767     -1255.7997     -2261.6428     -2205.452       699.6957      -18.942793      10.686165      36.015393      8.6928616      7.5279785      29.957136      1960.3852    
       129   0             -239.24767     -1255.8949     -2261.6591     -2205.5362      699.51057     -18.69295       10.069266      35.97419       8.6928616      7.5279785      29.957136      1960.3852    
       130   0             -239.24767     -1256.5995     -2262.3894     -2206.091       698.68178     -18.849141      10.272342      36.177514      8.6928616      7.5279785      29.957136      1960.3852    
       131   0             -239.24767     -1255.1657     -2261.4215     -2204.8957      700.82001     -19.23175       11.015742      36.372346      8.6928616      7.5279785      29.957136      1960.3852    
       132   0             -239.24767     -1255.4221     -2261.6635     -2205.0999      700.497       -19.299244      11.135867      36.403786      8.6928616      7.5279785      29.957136      1960.3852    
       133   0             -239.24767     -1255.2819     -2261.5421     -2204.9891      700.68559     -19.241986      11.001375      36.406945      8.6928616      7.5279785      29.957136      1960.3852    
       134   0             -239.24767     -1255.2773     -2261.534      -2204.981       700.68312     -19.215409      10.947798      36.420001      8.6928616      7.5279785      29.957136      1960.3852    
       135   0             -239.24767     -1255.4341     -2261.6365     -2205.1158      700.45007     -19.235782      10.999646      36.401769      8.6928616      7.5279785      29.957136      1960.3852    
       136   0             -239.24767     -1255.3915     -2261.5739     -2205.0898      700.48931     -19.230328      10.992398      36.377841      8.6928616      7.5279785      29.957136      1960.3852    
       137   0             -239.24767     -1255.5336     -2261.6904     -2205.1972      700.28693     -19.216602      10.956458      36.39149       8.6928616      7.5279785      29.957136      1960.3852    
       138   0             -239.24767     -1255.4739     -2261.6495     -2205.1428      700.37072     -19.227722      10.976829      36.405867      8.6928616      7.5279785      29.957136      1960.3852    
       139   0             -239.24767     -1255.4839     -2261.6595     -2205.1509      700.35874     -19.242358      11.009789      36.40801       8.6928616      7.5279785      29.957136      1960.3852    
       140   0             -239.24767     -1255.4883     -2261.6667     -2205.1563      700.35825     -19.243459      11.013777      36.408093      8.6928616      7.5279785      29.957136      1960.3852    
       141   0             -239.24767     -1255.4384     -2261.6312     -2205.1142      700.43037     -19.239334      11.006112      36.412158      8.6928616      7.5279785      29.957136      1960.3852    
       142   0             -239.24767     -1255.4761     -2261.6623     -2205.1452      700.37919     -19.237368      11.004231      36.411817      8.6928616      7.5279785      29.957136      1960.3852    
       143   0             -239.24767     -1255.468      -2261.652      -2205.1417      700.38971     -19.237736      11.008016      36.406352      8.6928616      7.5279785      29.957136      1960.3852    
       144   0             -239.24767     -1255.479      -2261.6595     -2205.1512      700.37363     -19.236517      11.007064      36.40478       8.6928616      7.5279785      29.957136      1960.3852    
       145   0             -239.24767     -1255.484      -2261.664      -2205.155       700.36685     -19.234978      11.00346       36.405534      8.6928616      7.5279785      29.957136      1960.3852    
       146   0             -239.24767     -1255.4797     -2261.6609     -2205.1515      700.37336     -19.234418      11.001886      36.405887      8.6928616      7.5279785      29.957136      1960.3852    
       147   0             -239.24767     -1255.4812     -2261.6626     -2205.1529      700.37196     -19.236214      11.006128      36.406062      8.6928616      7.5279785      29.957136      1960.3852    
       148   0             -239.24767     -1255.4777     -2261.6602     -2205.1499      700.37694     -19.236516      11.007018      36.406592      8.6928616      7.5279785      29.957136      1960.3852    
       149   0             -239.24767     -1255.479      -2261.6614     -2205.1509      700.37522     -19.236005      11.006179      36.407087      8.6928616      7.5279785      29.957136      1960.3852    
       150   0             -239.24767     -1255.4812     -2261.6628     -2205.153       700.37224     -19.235815      11.005942      36.406442      8.6928616      7.5279785      29.957136      1960.3852    
       151   0             -239.24767     -1255.48       -2261.6617     -2205.1521      700.37391     -19.235678      11.005812      36.406266      8.6928616      7.5279785      29.957136      1960.3852    
       152   0             -239.24767     -1255.4819     -2261.6633     -2205.1536      700.37122     -19.23549       11.005635      36.406462      8.6928616      7.5279785      29.957136      1960.3852    
       153   0             -239.24767     -1255.4816     -2261.6632     -2205.1534      700.37161     -19.235455      11.005579      36.406582      8.6928616      7.5279785      29.957136      1960.3852    
       154   0             -239.24767     -1255.4812     -2261.6628     -2205.1532      700.37224     -19.235514      11.005699      36.406427      8.6928616      7.5279785      29.957136      1960.3852    
       155   0             -239.24767     -1255.4817     -2261.6632     -2205.1535      700.37167     -19.235599      11.005906      36.406505      8.6928616      7.5279785      29.957136      1960.3852    
       156   0             -239.24767     -1255.481      -2261.6628     -2205.1529      700.37255     -19.235654      11.00604       36.406681      8.6928616      7.5279785      29.957136      1960.3852    
       157   0             -239.24767     -1255.4812     -2261.6629     -2205.153       700.37228     -19.235641      11.006007      36.406751      8.6928616      7.5279785      29.957136      1960.3852    
       158   0             -239.24767     -1255.4813     -2261.663      -2205.153       700.37218     -19.235624      11.005965      36.406707      8.6928616      7.5279785      29.957136      1960.3852    
       159   0             -239.24767     -1255.4813     -2261.663      -2205.1531      700.37206     -19.235608      11.005925      36.406626      8.6928616      7.5279785      29.957136      1960.3852    
       160   0             -239.24767     -1255.4814     -2261.663      -2205.1532      700.37196     -19.235618      11.005949      36.406644      8.6928616      7.5279785      29.957136      1960.3852    
       161   0             -239.24767     -1255.4812     -2261.6629     -2205.153       700.37221     -19.235621      11.005956      36.406668      8.6928616      7.5279785      29.957136      1960.3852    
       162   0             -239.24767     -1255.4812     -2261.6629     -2205.153       700.37217     -19.235618      11.005949      36.406661      8.6928616      7.5279785      29.957136      1960.3852    
       163   0             -239.24767     -1255.4812     -2261.6628     -2205.153       700.37224     -19.235625      11.00596       36.406658      8.6928616      7.5279785      29.957136      1960.3852    
       164   0             -239.24767     -1255.4812     -2261.6628     -2205.153       700.37222     -19.235633      11.005976      36.406674      8.6928616      7.5279785      29.957136      1960.3852    
       165   0             -239.24767     -1255.4813     -2261.6629     -2205.153       700.37215     -19.235633      11.005976      36.406671      8.6928616      7.5279785      29.957136      1960.3852    
       166   0             -239.24767     -1255.4812     -2261.6629     -2205.153       700.37217     -19.23563       11.005969      36.406659      8.6928616      7.5279785      29.957136      1960.3852    
       167   0             -239.24767     -1255.4812     -2261.6629     -2205.153       700.37217     -19.235628      11.005965      36.406658      8.6928616      7.5279785      29.957136      1960.3852    
       168   0             -239.24767     -1255.4812     -2261.6628     -2205.153       700.3722      -19.235628      11.005965      36.406661      8.6928616      7.5279785      29.957136      1960.3852    
       169   0             -239.24767     -1255.4812     -2261.6628     -2205.153       700.3722      -19.235627      11.005964      36.40666       8.6928616      7.5279785      29.957136      1960.3852    
       170   0             -239.24767     -1255.4812     -2261.6629     -2205.153       700.37219     -19.235628      11.005965      36.406658      8.6928616      7.5279785      29.957136      1960.3852    
       171   0             -239.24767     -1255.4812     -2261.6629     -2205.153       700.37219     -19.235629      11.005967      36.406659      8.6928616      7.5279785      29.957136      1960.3852    
       172   0             -239.24767     -1255.4812     -2261.6629     -2205.153       700.37218     -19.235629      11.005968      36.40666       8.6928616      7.5279785      29.957136      1960.3852    
       173   0             -239.24767     -1255.4812     -2261.6629     -2205.153       700.37218     -19.23563       11.005969      36.406661      8.6928616      7.5279785      29.957136      1960.3852    
       174   0             -239.24767     -1255.4812     -2261.6629     -2205.153       700.37219     -19.23563       11.005968      36.40666       8.6928616      7.5279785      29.957136      1960.3852    
       175   0             -239.24767     -1255.4812     -2261.6629     -2205.153       700.37219     -19.235629      11.005968      36.40666       8.6928616      7.5279785      29.957136      1960.3852    
       176   0             -239.24767     -1255.4812     -2261.6629     -2205.153       700.37219     -19.23563       11.005968      36.40666       8.6928616      7.5279785      29.957136      1960.3852    
       177   0             -239.24767     -1255.4812     -2261.6629     -2205.153       700.37219     -19.235629      11.005968      36.40666       8.6928616      7.5279785      29.957136      1960.3852    
       178   0             -239.24767     -1255.4812     -2261.6629     -2205.153       700.37218     -19.235629      11.005968      36.40666       8.6928616      7.5279785      29.957136      1960.3852    
       179   0             -239.24767     -1255.4812     -2261.6629     -2205.153       700.37219     -19.235629      11.005968      36.40666       8.6928616      7.5279785      29.957136      1960.3852    
       180   0             -239.24767     -1255.4812     -2261.6629     -2205.153       700.37219     -19.23563       11.005968      36.40666       8.6928616      7.5279785      29.957136      1960.3852    
       181   0             -239.24767     -1255.4812     -2261.6629     -2205.153       700.37219     -19.23563       11.005968      36.40666       8.6928616      7.5279785      29.957136      1960.3852    
       182   0             -239.24767     -1255.4812     -2261.6629     -2205.153       700.37219     -19.23563       11.005968      36.40666       8.6928616      7.5279785      29.957136      1960.3852    
       183   0             -239.24767     -1255.4812     -2261.6629     -2205.153       700.37219     -19.235629      11.005968      36.40666       8.6928616      7.5279785      29.957136      1960.3852    
       184   0             -239.24767     -1255.4812     -2261.6629     -2205.153       700.37219     -19.235629      11.005968      36.40666       8.6928616      7.5279785      29.957136      1960.3852    
       185   0             -239.24767     -1255.4812     -2261.6629     -2205.153       700.37219     -19.235629      11.005968      36.40666       8.6928616      7.5279785      29.957136      1960.3852    
       186   0             -239.24767     -1255.4812     -2261.6629     -2205.153       700.37219     -19.235629      11.005968      36.40666       8.6928616      7.5279785      29.957136      1960.3852    
       187   0             -239.24767     -1255.4812     -2261.6629     -2205.153       700.37219     -19.235629      11.005968      36.40666       8.6928616      7.5279785      29.957136      1960.3852    
       188   0             -239.24767     -1255.4812     -2261.6629     -2205.153       700.37219     -19.235629      11.005968      36.40666       8.6928616      7.5279785      29.957136      1960.3852    
       189   0             -239.24767     -1255.4812     -2261.6629     -2205.153       700.37219     -19.235629      11.005968      36.40666       8.6928616      7.5279785      29.957136      1960.3852    
       190   0             -239.24767     -1255.4812     -2261.6629     -2205.153       700.37219     -19.235629      11.005968      36.40666       8.6928616      7.5279785      29.957136      1960.3852    
       191   0             -239.24767     -1255.4812     -2261.6629     -2205.153       700.37219     -19.235629      11.005968      36.40666       8.6928616      7.5279785      29.957136      1960.3852    
       192   0             -239.24767     -1255.4812     -2261.6629     -2205.153       700.37219     -19.235629      11.005968      36.40666       8.6928616      7.5279785      29.957136      1960.3852    
       193   0             -239.24767     -1255.4812     -2261.6629     -2205.153       700.37219     -19.235629      11.005968      36.40666       8.6928616      7.5279785      29.957136      1960.3852    
       194   0             -239.24767     -1255.4812     -2261.6629     -2205.153       700.37219     -19.235629      11.005968      36.40666       8.6928616      7.5279785      29.957136      1960.3852    
       195   0             -239.24767     -1255.4812     -2261.6629     -2205.153       700.37219     -19.235629      11.005968      36.40666       8.6928616      7.5279785      29.957136      1960.3852    
       196   0             -239.24767     -1255.4812     -2261.6629     -2205.153       700.37219     -19.235629      11.005968      36.40666       8.6928616      7.5279785      29.957136      1960.3852    
       197   0             -239.24767     -1255.4812     -2261.6629     -2205.153       700.37219     -19.235629      11.005968      36.40666       8.6928616      7.5279785      29.957136      1960.3852    
       198   0             -239.24767     -1255.4812     -2261.6629     -2205.153       700.37219     -19.235629      11.005968      36.40666       8.6928616      7.5279785      29.957136      1960.3852    
       199   0             -239.24767     -1255.4812     -2261.6629     -2205.153       700.37219     -19.235629      11.005968      36.40666       8.6928616      7.5279785      29.957136      1960.3852    
       200   0             -239.24767     -1255.4812     -2261.6629     -2205.153       700.37219     -19.235629      11.005968      36.40666       8.6928616      7.5279785      29.957136      1960.3852    
Loop time of 0.0375674 on 48 procs for 100 steps with 60 atoms

99.6% CPU use with 48 MPI tasks x no OpenMP threads

Minimization stats:
  Stopping criterion = max iterations
  Energy initial, next-to-last, final = 
     -238.737628350429  -239.247668976373  -239.247668976373
  Force two-norm initial, final = 2.1435572 4.9643133e-13
  Force max component initial, final = 0.40816636 1.1213253e-13
  Final line search alpha, max atom move = 1 1.1213253e-13
  Iterations, force evaluations = 100 184

MPI task timing breakdown:
Section |  min time  |  avg time  |  max time  |%varavg| %total
---------------------------------------------------------------
Pair    | 2.2154e-05 | 0.0094257  | 0.022734   |   6.2 | 25.09
Neigh   | 0          | 0          | 0          |   0.0 |  0.00
Comm    | 0.0062477  | 0.017372   | 0.028756   |   4.7 | 46.24
Output  | 0.0038984  | 0.0039726  | 0.0044296  |   0.1 | 10.57
Modify  | 0          | 0          | 0          |   0.0 |  0.00
Other   |            | 0.006797   |            |       | 18.09

Nlocal:           1.25 ave           3 max           0 min
Histogram: 9 0 0 20 0 0 17 0 0 2
Nghost:         180.75 ave         183 max         177 min
Histogram: 2 5 0 4 0 5 12 0 16 4
Neighs:              0 ave           0 max           0 min
Histogram: 48 0 0 0 0 0 0 0 0 0
FullNghs:           52 ave         126 max           0 min
Histogram: 9 0 0 20 0 0 17 0 0 2

Total # of neighbors = 2496
Ave neighs/atom = 41.6
Neighbor list builds = 0
Dangerous builds = 0
Reading restart file ...
  restart file = 24 Mar 2022, LAMMPS = 24 Mar 2022
  restoring atom style atomic from restart
  triclinic box = (0.043463702 0.037770774 0.14287396) to (8.7363253 7.5657492 30.09998) with tilt (-4.3462811 0 0)
  3 by 2 by 8 MPI processor grid
  pair style nep stores no restart info
  60 atoms
  read_restart CPU = 0.053 seconds
Use the NEP4 potential with 3 atom types.
    type 0( Bi with Z = 83).
    type 1( Sb with Z = 51).
    type 2( Te with Z = 52).
    has universal ZBL with inner cutoff 1.25 A and outer cutoff 2.5 A.
    radial cutoff = 6 A.
    angular cutoff = 4 A.
    n_max_radial = 6.
    n_max_angular = 6.
    basis_size_radial = 8.
    basis_size_angular = 8.
    l_max_3body = 6.
    l_max_4body = 2.
    l_max_5body = 1.
    ANN = 56-60-1.
    number of neural network parameters = 10441.
    number of descriptor parameters = 1134.
    total number of parameters = 11575.
Changing box ...
  triclinic box = (0.043463702 0.037770774 0.14287396) to (8.7363253 7.5657492 30.09998) with tilt (-4.3462811 0 -2.9957106e-05)
Neighbor list info ...
  update every 1 steps, delay 0 steps, check yes
  max neighbors/atom: 2000, page size: 100000
  master list distance cutoff = 7
  ghost atom cutoff = 7
  1 neighbor lists, perpetual/occasional/extra = 1 0 0
  (1) pair nep, perpetual
      attributes: full, newton on
      pair build: full/nsq
      stencil: none
      bin: none
Setting up cg style minimization ...
  Unit style    : metal
  Current step  : 100
Per MPI rank memory allocation (min/avg/max) = 4.085 | 4.085 | 4.085 Mbytes
   Step          Temp          PotEng         Press           Pxx            Pyy            Pzz            Pxy            Pxz            Pyz             Lx             Ly             Lz           Volume    
       100   0             -238.73763     -2366.0047     -2627.6775     -2642.1548     -1828.1818     -11.032531      18.850691      44.115772      8.6928616      7.5279785      29.957106      1960.3833    
       101   0             -238.84183     -2725.6896     -2965.882      -2961.5153     -2249.6715     -5.3098389      22.501241      45.34686       8.6928616      7.5279785      29.957106      1960.3833    
       102   0             -238.92767     -2981.7917     -3209.1839     -3195.2956     -2540.8955     -1.2391085      26.067826      45.178574      8.6928616      7.5279785      29.957106      1960.3833    
       103   0             -238.99804     -3139.7195     -3365.523      -3349.4628     -2704.1725      1.5410889      29.187379      44.014747      8.6928616      7.5279785      29.957106      1960.3833    
       104   0             -239.05539     -3201.7921     -3442.3966     -3429.4172     -2733.5625      3.2669933      31.571545      42.258113      8.6928616      7.5279785      29.957106      1960.3833    
       105   0             -239.10183     -3173.3444     -3447.6315     -3440.7106     -2631.6911      4.0316451      33.051758      40.307614      8.6928616      7.5279785      29.957106      1960.3833    
       106   0             -239.13919     -3061.2295     -3389.7314     -3389.3991     -2404.558       3.7637369      33.628477      38.520003      8.6928616      7.5279785      29.957106      1960.3833    
       107   0             -239.1691      -2876.6782     -3278.3255     -3282.6536     -2069.0555      2.2274633      33.512289      37.140594      8.6928616      7.5279785      29.957106      1960.3833    
       108   0             -239.19301     -2631.3731     -3123.4395     -3128.4091     -1642.2708     -0.91860667     33.102158      36.226963      8.6928616      7.5279785      29.957106      1960.3833    
       109   0             -239.21184     -2343.4663     -2937.5139     -2937.9592     -1154.9258     -5.871034       32.824727      35.618233      8.6928616      7.5279785      29.957106      1960.3833    
       110   0             -239.22434     -2077.4232     -2763.7036     -2756.3879     -712.17799     -11.312562      32.741437      35.103205      8.6928616      7.5279785      29.957106      1960.3833    
       111   0             -239.23312     -1827.7993     -2599.4602     -2582.8055     -301.13234     -16.861612      32.428747      34.776697      8.6928616      7.5279785      29.957106      1960.3833    
       112   0             -239.23921     -1590.3541     -2442.5878     -2415.538       87.063642     -22.090561      31.089532      34.777195      8.6928616      7.5279785      29.957106      1960.3833    
       113   0             -239.24313     -1366.5408     -2294.949      -2256.8508      452.17757     -26.284795      27.347766      34.94147       8.6928616      7.5279785      29.957106      1960.3833    
       114   0             -239.24527     -1169.2663     -2166.7195     -2118.0081      776.92886     -27.781933      18.387541      34.33279       8.6928616      7.5279785      29.957106      1960.3833    
       115   0             -239.24644     -1138.4419     -2155.0089     -2103.9016      843.58478     -22.754044      4.6256062      30.925637      8.6928616      7.5279785      29.957106      1960.3833    
       116   0             -239.24703     -1209.7088     -2210.7813     -2156.2035      737.85847     -25.095527      14.442294      36.666069      8.6928616      7.5279785      29.957106      1960.3833    
       117   0             -239.24717     -1268.8194     -2260.9089     -2211.7241      666.17466     -20.533112      3.6225652      28.820069      8.6928616      7.5279785      29.957106      1960.3833    
       118   0             -239.24743     -1182.1108     -2201.3649     -2152.3121      807.34458     -15.823629     -6.5866773      23.831995      8.6928616      7.5279785      29.957106      1960.3833    
       119   0             -239.24758     -1199.6676     -2222.5503     -2160.1154      783.66299     -22.765678      11.886377      38.882959      8.6928616      7.5279785      29.957106      1960.3833    
       120   0             -239.24761     -1248.0623     -2258.6416     -2199.0216      713.47638     -21.944503      12.079967      37.440397      8.6928616      7.5279785      29.957106      1960.3833    
       121   0             -239.24764     -1249.3524     -2256.3776     -2199.3432      707.66356     -19.757584      9.104439       35.510388      8.6928616      7.5279785      29.957106      1960.3833    
       122   0             -239.24765     -1263.923      -2268.2852     -2210.6616      687.17789     -19.513319      9.4867336      36.366745      8.6928616      7.5279785      29.957106      1960.3833    
       123   0             -239.24765     -1263.1524     -2267.3464     -2210.8451      688.73412     -20.028747      11.502302      35.908142      8.6928616      7.5279785      29.957106      1960.3833    
       124   0             -239.24766     -1255.4387     -2261.2154     -2204.8486      699.74781     -20.038394      12.120005      35.916905      8.6928616      7.5279785      29.957106      1960.3833    
       125   0             -239.24767     -1253.1842     -2260.1705     -2203.0081      703.62581     -19.463273      11.178265      36.502927      8.6928616      7.5279785      29.957106      1960.3833    
       126   0             -239.24767     -1250.8317     -2258.6751     -2201.0786      707.25846     -19.54954       11.548278      37.185598      8.6928616      7.5279785      29.957106      1960.3833    
       127   0             -239.24767     -1254.2337     -2261.2318     -2203.8624      702.39299     -19.465678      11.531557      37.111357      8.6928616      7.5279785      29.957106      1960.3833    
       128   0             -239.24767     -1255.58       -2261.6523     -2205.073       699.98526     -18.947756      10.694039      36.396408      8.6928616      7.5279785      29.957106      1960.3833    
       129   0             -239.24767     -1255.5724     -2261.5841     -2205.0737      699.94064     -18.6976        10.07888       36.352572      8.6928616      7.5279785      29.957106      1960.3833    
       130   0             -239.24767     -1256.3592     -2262.3796     -2205.6964      698.99829     -18.846228      10.265966      36.554435      8.6928616      7.5279785      29.957106      1960.3833    
       131   0             -239.24767     -1254.9048     -2261.3966     -2204.4854      701.16745     -19.22884       11.008342      36.750174      8.6928616      7.5279785      29.957106      1960.3833    
       132   0             -239.24767     -1255.1398     -2261.6231     -2204.6718      700.87556     -19.300728      11.138021      36.783075      8.6928616      7.5279785      29.957106      1960.3833    
       133   0             -239.24767     -1255.0214     -2261.5191     -2204.5791      701.03407     -19.243258      11.002996      36.785555      8.6928616      7.5279785      29.957106      1960.3833    
       134   0             -239.24767     -1254.991      -2261.4895     -2204.5505      701.0669      -19.21408       10.944057      36.797869      8.6928616      7.5279785      29.957106      1960.3833    
       135   0             -239.24767     -1255.1689     -2261.6095     -2204.7021      700.80478     -19.234593      10.996615      36.78028       8.6928616      7.5279785      29.957106      1960.3833    
       136   0             -239.24767     -1255.1154     -2261.5376     -2204.6675      700.85897     -19.230166      10.991751      36.755929      8.6928616      7.5279785      29.957106      1960.3833    
       137   0             -239.24767     -1255.2586     -2261.6546     -2204.7759      700.65476     -19.216395      10.956011      36.769233      8.6928616      7.5279785      29.957106      1960.3833    
       138   0             -239.24767     -1255.2051     -2261.6193     -2204.7262      700.73009     -19.227005      10.974893      36.78444       8.6928616      7.5279785      29.957106      1960.3833    
       139   0             -239.24767     -1255.2091     -2261.6244     -2204.7294      700.7266      -19.242241      11.00917       36.786737      8.6928616      7.5279785      29.957106      1960.3833    
       140   0             -239.24767     -1255.2181     -2261.6354     -2204.7386      700.71964     -19.243444      11.013416      36.786719      8.6928616      7.5279785      29.957106      1960.3833    
       141   0             -239.24767     -1255.165      -2261.5972     -2204.6941      700.79629     -19.239299      11.005719      36.790577      8.6928616      7.5279785      29.957106      1960.3833    
       142   0             -239.24767     -1255.2014     -2261.6274     -2204.7238      700.74707     -19.237104      11.003342      36.790572      8.6928616      7.5279785      29.957106      1960.3833    
       143   0             -239.24767     -1255.1964     -2261.6196     -2204.7229      700.75324     -19.237459      11.007137      36.785031      8.6928616      7.5279785      29.957106      1960.3833    
       144   0             -239.24767     -1255.2051     -2261.6252     -2204.7305      700.74033     -19.236302      11.006356      36.783351      8.6928616      7.5279785      29.957106      1960.3833    
       145   0             -239.24767     -1255.2118     -2261.631      -2204.7356      700.73131     -19.234809      11.002889      36.7841        8.6928616      7.5279785      29.957106      1960.3833    
       146   0             -239.24767     -1255.2069     -2261.6275     -2204.7317      700.73849     -19.234154      11.001077      36.784516      8.6928616      7.5279785      29.957106      1960.3833    
       147   0             -239.24767     -1255.2084     -2261.6292     -2204.7332      700.73714     -19.235938      11.005277      36.78468       8.6928616      7.5279785      29.957106      1960.3833    
       148   0             -239.24767     -1255.2052     -2261.627      -2204.7304      700.7418      -19.236313      11.006339      36.785206      8.6928616      7.5279785      29.957106      1960.3833    
       149   0             -239.24767     -1255.2061     -2261.628      -2204.731       700.74057     -19.235779      11.005454      36.785719      8.6928616      7.5279785      29.957106      1960.3833    
       150   0             -239.24767     -1255.2086     -2261.6296     -2204.7334      700.7372      -19.235582      11.005203      36.785089      8.6928616      7.5279785      29.957106      1960.3833    
       151   0             -239.24767     -1255.2073     -2261.6285     -2204.7324      700.7389      -19.235455      11.005083      36.784883      8.6928616      7.5279785      29.957106      1960.3833    
       152   0             -239.24767     -1255.209      -2261.6298     -2204.7337      700.73654     -19.235258      11.0049        36.785075      8.6928616      7.5279785      29.957106      1960.3833    
       153   0             -239.24767     -1255.2091     -2261.63       -2204.7338      700.73652     -19.235223      11.004845      36.785209      8.6928616      7.5279785      29.957106      1960.3833    
       154   0             -239.24767     -1255.2085     -2261.6294     -2204.7334      700.73743     -19.235279      11.004957      36.785055      8.6928616      7.5279785      29.957106      1960.3833    
       155   0             -239.24767     -1255.209      -2261.6299     -2204.7338      700.73673     -19.23536       11.005154      36.785113      8.6928616      7.5279785      29.957106      1960.3833    
       156   0             -239.24767     -1255.2083     -2261.6295     -2204.7332      700.73761     -19.235422      11.005307      36.785303      8.6928616      7.5279785      29.957106      1960.3833    
       157   0             -239.24767     -1255.2085     -2261.6296     -2204.7333      700.7374      -19.235409      11.005273      36.785374      8.6928616      7.5279785      29.957106      1960.3833    
       158   0             -239.24767     -1255.2086     -2261.6297     -2204.7334      700.73724     -19.235392      11.005233      36.785335      8.6928616      7.5279785      29.957106      1960.3833    
       159   0             -239.24767     -1255.2086     -2261.6296     -2204.7334      700.73716     -19.235375      11.00519       36.78525       8.6928616      7.5279785      29.957106      1960.3833    
       160   0             -239.24767     -1255.2087     -2261.6297     -2204.7335      700.73703     -19.235385      11.005212      36.785265      8.6928616      7.5279785      29.957106      1960.3833    
       161   0             -239.24767     -1255.2085     -2261.6296     -2204.7333      700.73729     -19.235388      11.005222      36.785291      8.6928616      7.5279785      29.957106      1960.3833    
       162   0             -239.24767     -1255.2085     -2261.6296     -2204.7333      700.73728     -19.235386      11.005215      36.785286      8.6928616      7.5279785      29.957106      1960.3833    
       163   0             -239.24767     -1255.2085     -2261.6295     -2204.7333      700.73732     -19.235392      11.005226      36.785281      8.6928616      7.5279785      29.957106      1960.3833    
       164   0             -239.24767     -1255.2085     -2261.6295     -2204.7333      700.73732     -19.2354        11.005241      36.785296      8.6928616      7.5279785      29.957106      1960.3833    
       165   0             -239.24767     -1255.2086     -2261.6296     -2204.7333      700.73724     -19.235401      11.005242      36.785295      8.6928616      7.5279785      29.957106      1960.3833    
       166   0             -239.24767     -1255.2085     -2261.6296     -2204.7333      700.73726     -19.235397      11.005234      36.785283      8.6928616      7.5279785      29.957106      1960.3833    
       167   0             -239.24767     -1255.2085     -2261.6296     -2204.7333      700.73726     -19.235395      11.005231      36.785281      8.6928616      7.5279785      29.957106      1960.3833    
       168   0             -239.24767     -1255.2085     -2261.6295     -2204.7333      700.73728     -19.235395      11.00523       36.785284      8.6928616      7.5279785      29.957106      1960.3833    
       169   0             -239.24767     -1255.2085     -2261.6295     -2204.7333      700.73729     -19.235395      11.005229      36.785284      8.6928616      7.5279785      29.957106      1960.3833    
       170   0             -239.24767     -1255.2085     -2261.6295     -2204.7333      700.73727     -19.235395      11.00523       36.785282      8.6928616      7.5279785      29.957106      1960.3833    
       171   0             -239.24767     -1255.2085     -2261.6295     -2204.7333      700.73728     -19.235396      11.005232      36.785282      8.6928616      7.5279785      29.957106      1960.3833    
       172   0             -239.24767     -1255.2085     -2261.6296     -2204.7333      700.73727     -19.235397      11.005233      36.785284      8.6928616      7.5279785      29.957106      1960.3833    
       173   0             -239.24767     -1255.2085     -2261.6296     -2204.7333      700.73727     -19.235397      11.005234      36.785284      8.6928616      7.5279785      29.957106      1960.3833    
       174   0             -239.24767     -1255.2085     -2261.6295     -2204.7333      700.73728     -19.235397      11.005234      36.785283      8.6928616      7.5279785      29.957106      1960.3833    
       175   0             -239.24767     -1255.2085     -2261.6295     -2204.7333      700.73727     -19.235397      11.005233      36.785283      8.6928616      7.5279785      29.957106      1960.3833    
       176   0             -239.24767     -1255.2085     -2261.6295     -2204.7333      700.73728     -19.235397      11.005234      36.785284      8.6928616      7.5279785      29.957106      1960.3833    
       177   0             -239.24767     -1255.2085     -2261.6295     -2204.7333      700.73727     -19.235397      11.005233      36.785284      8.6928616      7.5279785      29.957106      1960.3833    
       178   0             -239.24767     -1255.2085     -2261.6295     -2204.7333      700.73727     -19.235397      11.005233      36.785283      8.6928616      7.5279785      29.957106      1960.3833    
       179   0             -239.24767     -1255.2085     -2261.6295     -2204.7333      700.73727     -19.235397      11.005233      36.785284      8.6928616      7.5279785      29.957106      1960.3833    
       180   0             -239.24767     -1255.2085     -2261.6295     -2204.7333      700.73727     -19.235397      11.005234      36.785284      8.6928616      7.5279785      29.957106      1960.3833    
       181   0             -239.24767     -1255.2085     -2261.6295     -2204.7333      700.73727     -19.235397      11.005234      36.785284      8.6928616      7.5279785      29.957106      1960.3833    
       182   0             -239.24767     -1255.2085     -2261.6295     -2204.7333      700.73727     -19.235397      11.005233      36.785284      8.6928616      7.5279785      29.957106      1960.3833    
       183   0             -239.24767     -1255.2085     -2261.6295     -2204.7333      700.73727     -19.235397      11.005233      36.785284      8.6928616      7.5279785      29.957106      1960.3833    
       184   0             -239.24767     -1255.2085     -2261.6295     -2204.7333      700.73727     -19.235397      11.005233      36.785284      8.6928616      7.5279785      29.957106      1960.3833    
       185   0             -239.24767     -1255.2085     -2261.6295     -2204.7333      700.73727     -19.235397      11.005233      36.785284      8.6928616      7.5279785      29.957106      1960.3833    
       186   0             -239.24767     -1255.2085     -2261.6295     -2204.7333      700.73727     -19.235397      11.005233      36.785284      8.6928616      7.5279785      29.957106      1960.3833    
       187   0             -239.24767     -1255.2085     -2261.6295     -2204.7333      700.73727     -19.235397      11.005233      36.785284      8.6928616      7.5279785      29.957106      1960.3833    
       188   0             -239.24767     -1255.2085     -2261.6295     -2204.7333      700.73727     -19.235397      11.005233      36.785284      8.6928616      7.5279785      29.957106      1960.3833    
       189   0             -239.24767     -1255.2085     -2261.6295     -2204.7333      700.73727     -19.235397      11.005233      36.785284      8.6928616      7.5279785      29.957106      1960.3833    
       190   0             -239.24767     -1255.2085     -2261.6295     -2204.7333      700.73727     -19.235397      11.005233      36.785284      8.6928616      7.5279785      29.957106      1960.3833    
       191   0             -239.24767     -1255.2085     -2261.6295     -2204.7333      700.73727     -19.235397      11.005233      36.785284      8.6928616      7.5279785      29.957106      1960.3833    
       192   0             -239.24767     -1255.2085     -2261.6295     -2204.7333      700.73727     -19.235397      11.005233      36.785284      8.6928616      7.5279785      29.957106      1960.3833    
       193   0             -239.24767     -1255.2085     -2261.6295     -2204.7333      700.73727     -19.235397      11.005233      36.785284      8.6928616      7.5279785      29.957106      1960.3833    
       194   0             -239.24767     -1255.2085     -2261.6295     -2204.7333      700.73727     -19.235397      11.005233      36.785284      8.6928616      7.5279785      29.957106      1960.3833    
       195   0             -239.24767     -1255.2085     -2261.6295     -2204.7333      700.73727     -19.235397      11.005233      36.785284      8.6928616      7.5279785      29.957106      1960.3833    
       196   0             -239.24767     -1255.2085     -2261.6295     -2204.7333      700.73727     -19.235397      11.005233      36.785284      8.6928616      7.5279785      29.957106      1960.3833    
       197   0             -239.24767     -1255.2085     -2261.6295     -2204.7333      700.73727     -19.235397      11.005233      36.785284      8.6928616      7.5279785      29.957106      1960.3833    
       198   0             -239.24767     -1255.2085     -2261.6295     -2204.7333      700.73727     -19.235397      11.005233      36.785284      8.6928616      7.5279785      29.957106      1960.3833    
       199   0             -239.24767     -1255.2085     -2261.6295     -2204.7333      700.73727     -19.235397      11.005233      36.785284      8.6928616      7.5279785      29.957106      1960.3833    
       200   0             -239.24767     -1255.2085     -2261.6295     -2204.7333      700.73727     -19.235397      11.005233      36.785284      8.6928616      7.5279785      29.957106      1960.3833    
Loop time of 0.0382742 on 48 procs for 100 steps with 60 atoms

99.5% CPU use with 48 MPI tasks x no OpenMP threads

Minimization stats:
  Stopping criterion = max iterations
  Energy initial, next-to-last, final = 
     -238.737630534247  -239.247668074414  -239.247668074414
  Force two-norm initial, final = 2.143568 4.9707609e-13
  Force max component initial, final = 0.40815884 1.1176476e-13
  Final line search alpha, max atom move = 1 1.1176476e-13
  Iterations, force evaluations = 100 184

MPI task timing breakdown:
Section |  min time  |  avg time  |  max time  |%varavg| %total
---------------------------------------------------------------
Pair    | 2.0411e-05 | 0.0094859  | 0.02278    |   6.2 | 24.78
Neigh   | 0          | 0          | 0          |   0.0 |  0.00
Comm    | 0.0063057  | 0.017571   | 0.028845   |   4.7 | 45.91
Output  | 0.0039553  | 0.0040272  | 0.0044562  |   0.1 | 10.52
Modify  | 0          | 0          | 0          |   0.0 |  0.00
Other   |            | 0.00719    |            |       | 18.79

Nlocal:           1.25 ave           3 max           0 min
Histogram: 9 0 0 20 0 0 17 0 0 2
Nghost:         180.75 ave         183 max         177 min
Histogram: 2 5 0 4 0 5 12 0 16 4
Neighs:              0 ave           0 max           0 min
Histogram: 48 0 0 0 0 0 0 0 0 0
FullNghs:           52 ave         126 max           0 min
Histogram: 9 0 0 20 0 0 17 0 0 2

Total # of neighbors = 2496
Ave neighs/atom = 41.6
Neighbor list builds = 0
Dangerous builds = 0
Reading restart file ...
  restart file = 24 Mar 2022, LAMMPS = 24 Mar 2022
  restoring atom style atomic from restart
  triclinic box = (0.043463702 0.037770774 0.14287396) to (8.7363253 7.5657492 30.09998) with tilt (-4.3462811 0 0)
  3 by 2 by 8 MPI processor grid
  pair style nep stores no restart info
  60 atoms
  read_restart CPU = 0.026 seconds
Use the NEP4 potential with 3 atom types.
    type 0( Bi with Z = 83).
    type 1( Sb with Z = 51).
    type 2( Te with Z = 52).
    has universal ZBL with inner cutoff 1.25 A and outer cutoff 2.5 A.
    radial cutoff = 6 A.
    angular cutoff = 4 A.
    n_max_radial = 6.
    n_max_angular = 6.
    basis_size_radial = 8.
    basis_size_angular = 8.
    l_max_3body = 6.
    l_max_4body = 2.
    l_max_5body = 1.
    ANN = 56-60-1.
    number of neural network parameters = 10441.
    number of descriptor parameters = 1134.
    total number of parameters = 11575.
Changing box ...
  triclinic box = (0.043463702 0.037770774 0.14287396) to (8.7363253 7.5657492 30.09998) with tilt (-4.3462811 0 2.9957106e-05)
Neighbor list info ...
  update every 1 steps, delay 0 steps, check yes
  max neighbors/atom: 2000, page size: 100000
  master list distance cutoff = 7
  ghost atom cutoff = 7
  1 neighbor lists, perpetual/occasional/extra = 1 0 0
  (1) pair nep, perpetual
      attributes: full, newton on
      pair build: full/nsq
      stencil: none
      bin: none
Setting up cg style minimization ...
  Unit style    : metal
  Current step  : 100
Per MPI rank memory allocation (min/avg/max) = 4.085 | 4.085 | 4.085 Mbytes
   Step          Temp          PotEng         Press           Pxx            Pyy            Pzz            Pxy            Pxz            Pyz             Lx             Ly             Lz           Volume    
       100   0             -238.73763     -2366.0039     -2627.0798     -2642.7513     -1828.1807     -11.032522      18.850761      42.903993      8.6928616      7.5279785      29.957106      1960.3833    
       101   0             -238.84183     -2725.6889     -2965.3052     -2962.0913     -2249.6703     -5.3098058      22.501254      44.178277      8.6928616      7.5279785      29.957106      1960.3833    
       102   0             -238.92767     -2981.7911     -3208.6264     -3195.8525     -2540.8943     -1.239066       26.06783       44.051166      8.6928616      7.5279785      29.957106      1960.3833    
       103   0             -238.99804     -3139.7189     -3364.9836     -3350.0019     -2704.1714      1.5411228      29.187412      42.927039      8.6928616      7.5279785      29.957106      1960.3833    
       104   0             -239.05539     -3201.7916     -3441.8744     -3429.9391     -2733.5613      3.2669969      31.571648      41.209054      8.6928616      7.5279785      29.957106      1960.3833    
       105   0             -239.10183     -3173.3438     -3447.126      -3441.2157     -2631.6896      4.0315918      33.051976      39.296383      8.6928616      7.5279785      29.957106      1960.3833    
       106   0             -239.13919     -3061.2286     -3389.242      -3389.8877     -2404.5561      3.763594       33.628867      37.545792      8.6928616      7.5279785      29.957106      1960.3833    
       107   0             -239.1691      -2876.6769     -3277.8517     -3283.126      -2069.053       2.2271901      33.512929      36.202334      8.6928616      7.5279785      29.957106      1960.3833    
       108   0             -239.19301     -2631.3715     -3122.9808     -3128.8658     -1642.2679     -0.91906011     33.103151      35.323119      8.6928616      7.5279785      29.957106      1960.3833    
       109   0             -239.21184     -2343.465      -2937.0699     -2938.4016     -1154.9234     -5.8717149      32.826196      34.746264      8.6928616      7.5279785      29.957106      1960.3833    
       110   0             -239.22434     -2077.4218     -2763.2711     -2756.8187     -712.17549     -11.313498      32.743425      34.25572       8.6928616      7.5279785      29.957106      1960.3833    
       111   0             -239.23312     -1827.7978     -2599.0377     -2583.2261     -301.12973     -16.862832      32.431312      33.950408      8.6928616      7.5279785      29.957106      1960.3833    
       112   0             -239.23921     -1590.3525     -2442.1753     -2415.9486      87.066402     -22.092106      31.09275       33.971208      8.6928616      7.5279785      29.957106      1960.3833    
       113   0             -239.24313     -1366.5392     -2294.5472     -2257.2507      452.18042     -26.286722      27.351755      34.156709      8.6928616      7.5279785      29.957106      1960.3833    
       114   0             -239.24527     -1169.2648     -2166.3299     -2118.3961      776.93157     -27.784324      18.392502      33.571914      8.6928616      7.5279785      29.957106      1960.3833    
       115   0             -239.24644     -1138.4449     -2154.6305     -2104.285       843.58083     -22.756798      4.6316312      30.180584      8.6928616      7.5279785      29.957106      1960.3833    
       116   0             -239.24703     -1209.7076     -2210.3944     -2156.5888      737.8606      -25.098254      14.448153      35.91062       8.6928616      7.5279785      29.957106      1960.3833    
       117   0             -239.24717     -1268.8233     -2260.527      -2212.1102      666.16742     -20.536676      3.6306402      28.070056      8.6928616      7.5279785      29.957106      1960.3833    
       118   0             -239.24743     -1182.1314     -2200.9999     -2152.711       807.31662     -15.825681     -6.5817966      23.086103      8.6928616      7.5279785      29.957106      1960.3833    
       119   0             -239.24758     -1199.6602     -2222.1604     -2160.4925      783.67218     -22.76762       11.890733      38.133217      8.6928616      7.5279785      29.957106      1960.3833    
       120   0             -239.24761     -1248.063      -2258.2593     -2199.4055      713.47592     -21.947666      12.086305      36.691114      8.6928616      7.5279785      29.957106      1960.3833    
       121   0             -239.24764     -1249.3555     -2255.9947     -2199.7307      707.65886     -19.76001       9.1095453      34.757763      8.6928616      7.5279785      29.957106      1960.3833    
       122   0             -239.24765     -1263.9232     -2267.8996     -2211.0467      687.17689     -19.51578       9.4920005      35.613784      8.6928616      7.5279785      29.957106      1960.3833    
       123   0             -239.24765     -1263.1597     -2266.9665     -2211.2364      688.72373     -20.031152      11.507458      35.154412      8.6928616      7.5279785      29.957106      1960.3833    
       124   0             -239.24766     -1255.4385     -2260.829      -2205.2346      699.74822     -20.040996      12.125618      35.162228      8.6928616      7.5279785      29.957106      1960.3833    
       125   0             -239.24767     -1253.1889     -2259.7885     -2203.3978      703.6197      -19.465455      11.183084      35.748915      8.6928616      7.5279785      29.957106      1960.3833    
       126   0             -239.24767     -1250.8339     -2258.2915     -2201.4661      707.25599     -19.551635      11.552941      36.431989      8.6928616      7.5279785      29.957106      1960.3833    
       127   0             -239.24767     -1254.2337     -2260.8469     -2204.2479      702.39368     -19.468083      11.536803      36.358541      8.6928616      7.5279785      29.957106      1960.3833    
       128   0             -239.24767     -1255.5847     -2261.2712     -2205.462       699.9792      -18.950104      10.699335      35.643939      8.6928616      7.5279785      29.957106      1960.3833    
       129   0             -239.24767     -1255.5747     -2261.2012     -2205.4607      699.93778     -18.69997       10.084287      35.600235      8.6928616      7.5279785      29.957106      1960.3833    
       130   0             -239.24767     -1256.3634     -2261.998      -2206.085       698.99292     -18.848411      10.27098       35.801857      8.6928616      7.5279785      29.957106      1960.3833    
       131   0             -239.24767     -1254.9087     -2261.0146     -2204.874       701.16254     -19.231002      11.013281      35.997246      8.6928616      7.5279785      29.957106      1960.3833    
       132   0             -239.24767     -1255.1431     -2261.2407     -2205.06        700.87151     -19.302994      11.143181      36.030127      8.6928616      7.5279785      29.957106      1960.3833    
       133   0             -239.24767     -1255.0252     -2261.1371     -2204.9676      701.0293      -19.245521      11.008149      36.032657      8.6928616      7.5279785      29.957106      1960.3833    
       134   0             -239.24767     -1254.9942     -2261.107      -2204.9385      701.06297     -19.216275      10.949069      36.045009      8.6928616      7.5279785      29.957106      1960.3833    
       135   0             -239.24767     -1255.1726     -2261.2274     -2205.0905      700.80021     -19.236786      11.001636      36.027437      8.6928616      7.5279785      29.957106      1960.3833    
       136   0             -239.24767     -1255.1188     -2261.1554     -2205.0557      700.8547      -19.232383      10.996829      36.003079      8.6928616      7.5279785      29.957106      1960.3833    
       137   0             -239.24767     -1255.262      -2261.2723     -2205.1642      700.65047     -19.218612      10.961097      36.016378      8.6928616      7.5279785      29.957106      1960.3833    
       138   0             -239.24767     -1255.2087     -2261.2372     -2205.1146      700.72559     -19.229212      10.979948      36.031587      8.6928616      7.5279785      29.957106      1960.3833    
       139   0             -239.24767     -1255.2125     -2261.2422     -2205.1176      700.72229     -19.244462      11.014254      36.033866      8.6928616      7.5279785      29.957106      1960.3833    
       140   0             -239.24767     -1255.2217     -2261.2532     -2205.127       700.71518     -19.245667      11.018505      36.033833      8.6928616      7.5279785      29.957106      1960.3833    
       141   0             -239.24767     -1255.1685     -2261.215      -2205.0824      700.79192     -19.241521      11.010807      36.037692      8.6928616      7.5279785      29.957106      1960.3833    
       142   0             -239.24767     -1255.2048     -2261.2452     -2205.112       700.74277     -19.23932       11.008418      36.037704      8.6928616      7.5279785      29.957106      1960.3833    
       143   0             -239.24767     -1255.2        -2261.2375     -2205.1112      700.74883     -19.239675      11.012211      36.032163      8.6928616      7.5279785      29.957106      1960.3833    
       144   0             -239.24767     -1255.2086     -2261.2429     -2205.1188      700.736       -19.238518      11.011433      36.030481      8.6928616      7.5279785      29.957106      1960.3833    
       145   0             -239.24767     -1255.2153     -2261.2488     -2205.1239      700.72693     -19.237026      11.00797       36.031231      8.6928616      7.5279785      29.957106      1960.3833    
       146   0             -239.24767     -1255.2104     -2261.2453     -2205.12        700.73412     -19.23637       11.006154      36.031649      8.6928616      7.5279785      29.957106      1960.3833    
       147   0             -239.24767     -1255.2119     -2261.247      -2205.1215      700.73277     -19.238154      11.010352      36.03181       8.6928616      7.5279785      29.957106      1960.3833    
       148   0             -239.24767     -1255.2087     -2261.2448     -2205.1187      700.73742     -19.23853       11.011419      36.032335      8.6928616      7.5279785      29.957106      1960.3833    
       149   0             -239.24767     -1255.2096     -2261.2458     -2205.1193      700.7362      -19.237996      11.010533      36.032849      8.6928616      7.5279785      29.957106      1960.3833    
       150   0             -239.24767     -1255.2121     -2261.2474     -2205.1217      700.73282     -19.237799      11.010281      36.032221      8.6928616      7.5279785      29.957106      1960.3833    
       151   0             -239.24767     -1255.2108     -2261.2463     -2205.1207      700.73452     -19.237672      11.010161      36.032014      8.6928616      7.5279785      29.957106      1960.3833    
       152   0             -239.24767     -1255.2125     -2261.2476     -2205.122       700.73217     -19.237475      11.009978      36.032206      8.6928616      7.5279785      29.957106      1960.3833    
       153   0             -239.24767     -1255.2126     -2261.2478     -2205.1221      700.73214     -19.237439      11.009923      36.03234       8.6928616      7.5279785      29.957106      1960.3833    
       154   0             -239.24767     -1255.212      -2261.2472     -2205.1217      700.73306     -19.237495      11.010034      36.032186      8.6928616      7.5279785      29.957106      1960.3833    
       155   0             -239.24767     -1255.2125     -2261.2477     -2205.1221      700.73236     -19.237576      11.010231      36.032244      8.6928616      7.5279785      29.957106      1960.3833    
       156   0             -239.24767     -1255.2118     -2261.2473     -2205.1215      700.73324     -19.237638      11.010385      36.032434      8.6928616      7.5279785      29.957106      1960.3833    
       157   0             -239.24767     -1255.212      -2261.2474     -2205.1216      700.73303     -19.237626      11.010351      36.032505      8.6928616      7.5279785      29.957106      1960.3833    
       158   0             -239.24767     -1255.2121     -2261.2475     -2205.1217      700.73287     -19.237609      11.010311      36.032466      8.6928616      7.5279785      29.957106      1960.3833    
       159   0             -239.24767     -1255.2121     -2261.2474     -2205.1217      700.73279     -19.237591      11.010268      36.032381      8.6928616      7.5279785      29.957106      1960.3833    
       160   0             -239.24767     -1255.2122     -2261.2475     -2205.1218      700.73266     -19.237601      11.01029       36.032395      8.6928616      7.5279785      29.957106      1960.3833    
       161   0             -239.24767     -1255.212      -2261.2474     -2205.1216      700.73291     -19.237605      11.0103        36.032422      8.6928616      7.5279785      29.957106      1960.3833    
       162   0             -239.24767     -1255.212      -2261.2474     -2205.1216      700.7329      -19.237602      11.010293      36.032417      8.6928616      7.5279785      29.957106      1960.3833    
       163   0             -239.24767     -1255.212      -2261.2473     -2205.1216      700.73295     -19.237608      11.010304      36.032412      8.6928616      7.5279785      29.957106      1960.3833    
       164   0             -239.24767     -1255.212      -2261.2473     -2205.1216      700.73294     -19.237616      11.010319      36.032427      8.6928616      7.5279785      29.957106      1960.3833    
       165   0             -239.24767     -1255.212      -2261.2474     -2205.1216      700.73287     -19.237617      11.01032       36.032426      8.6928616      7.5279785      29.957106      1960.3833    
       166   0             -239.24767     -1255.212      -2261.2474     -2205.1216      700.73288     -19.237613      11.010312      36.032413      8.6928616      7.5279785      29.957106      1960.3833    
       167   0             -239.24767     -1255.212      -2261.2474     -2205.1216      700.73289     -19.237612      11.010309      36.032412      8.6928616      7.5279785      29.957106      1960.3833    
       168   0             -239.24767     -1255.212      -2261.2473     -2205.1216      700.73291     -19.237612      11.010308      36.032415      8.6928616      7.5279785      29.957106      1960.3833    
       169   0             -239.24767     -1255.212      -2261.2473     -2205.1216      700.73292     -19.237611      11.010307      36.032414      8.6928616      7.5279785      29.957106      1960.3833    
       170   0             -239.24767     -1255.212      -2261.2474     -2205.1216      700.7329      -19.237611      11.010308      36.032412      8.6928616      7.5279785      29.957106      1960.3833    
       171   0             -239.24767     -1255.212      -2261.2474     -2205.1216      700.7329      -19.237612      11.01031       36.032413      8.6928616      7.5279785      29.957106      1960.3833    
       172   0             -239.24767     -1255.212      -2261.2474     -2205.1216      700.73289     -19.237613      11.010311      36.032414      8.6928616      7.5279785      29.957106      1960.3833    
       173   0             -239.24767     -1255.212      -2261.2474     -2205.1216      700.7329      -19.237614      11.010312      36.032415      8.6928616      7.5279785      29.957106      1960.3833    
       174   0             -239.24767     -1255.212      -2261.2474     -2205.1216      700.7329      -19.237613      11.010312      36.032414      8.6928616      7.5279785      29.957106      1960.3833    
       175   0             -239.24767     -1255.212      -2261.2474     -2205.1216      700.7329      -19.237613      11.010311      36.032414      8.6928616      7.5279785      29.957106      1960.3833    
       176   0             -239.24767     -1255.212      -2261.2474     -2205.1216      700.7329      -19.237613      11.010312      36.032414      8.6928616      7.5279785      29.957106      1960.3833    
       177   0             -239.24767     -1255.212      -2261.2474     -2205.1216      700.7329      -19.237613      11.010311      36.032414      8.6928616      7.5279785      29.957106      1960.3833    
       178   0             -239.24767     -1255.212      -2261.2474     -2205.1216      700.7329      -19.237613      11.010311      36.032414      8.6928616      7.5279785      29.957106      1960.3833    
       179   0             -239.24767     -1255.212      -2261.2474     -2205.1216      700.7329      -19.237613      11.010311      36.032414      8.6928616      7.5279785      29.957106      1960.3833    
       180   0             -239.24767     -1255.212      -2261.2474     -2205.1216      700.7329      -19.237613      11.010312      36.032414      8.6928616      7.5279785      29.957106      1960.3833    
       181   0             -239.24767     -1255.212      -2261.2474     -2205.1216      700.7329      -19.237613      11.010312      36.032414      8.6928616      7.5279785      29.957106      1960.3833    
       182   0             -239.24767     -1255.212      -2261.2474     -2205.1216      700.7329      -19.237613      11.010311      36.032414      8.6928616      7.5279785      29.957106      1960.3833    
       183   0             -239.24767     -1255.212      -2261.2474     -2205.1216      700.7329      -19.237613      11.010311      36.032414      8.6928616      7.5279785      29.957106      1960.3833    
       184   0             -239.24767     -1255.212      -2261.2474     -2205.1216      700.7329      -19.237613      11.010311      36.032414      8.6928616      7.5279785      29.957106      1960.3833    
       185   0             -239.24767     -1255.212      -2261.2474     -2205.1216      700.7329      -19.237613      11.010311      36.032414      8.6928616      7.5279785      29.957106      1960.3833    
       186   0             -239.24767     -1255.212      -2261.2474     -2205.1216      700.7329      -19.237613      11.010311      36.032414      8.6928616      7.5279785      29.957106      1960.3833    
       187   0             -239.24767     -1255.212      -2261.2474     -2205.1216      700.7329      -19.237613      11.010311      36.032414      8.6928616      7.5279785      29.957106      1960.3833    
       188   0             -239.24767     -1255.212      -2261.2474     -2205.1216      700.7329      -19.237613      11.010311      36.032414      8.6928616      7.5279785      29.957106      1960.3833    
       189   0             -239.24767     -1255.212      -2261.2474     -2205.1216      700.7329      -19.237613      11.010311      36.032414      8.6928616      7.5279785      29.957106      1960.3833    
       190   0             -239.24767     -1255.212      -2261.2474     -2205.1216      700.7329      -19.237613      11.010311      36.032414      8.6928616      7.5279785      29.957106      1960.3833    
       191   0             -239.24767     -1255.212      -2261.2474     -2205.1216      700.7329      -19.237613      11.010311      36.032414      8.6928616      7.5279785      29.957106      1960.3833    
       192   0             -239.24767     -1255.212      -2261.2474     -2205.1216      700.7329      -19.237613      11.010311      36.032414      8.6928616      7.5279785      29.957106      1960.3833    
       193   0             -239.24767     -1255.212      -2261.2474     -2205.1216      700.7329      -19.237613      11.010311      36.032414      8.6928616      7.5279785      29.957106      1960.3833    
       194   0             -239.24767     -1255.212      -2261.2474     -2205.1216      700.7329      -19.237613      11.010311      36.032414      8.6928616      7.5279785      29.957106      1960.3833    
       195   0             -239.24767     -1255.212      -2261.2474     -2205.1216      700.7329      -19.237613      11.010311      36.032414      8.6928616      7.5279785      29.957106      1960.3833    
       196   0             -239.24767     -1255.212      -2261.2474     -2205.1216      700.7329      -19.237613      11.010311      36.032414      8.6928616      7.5279785      29.957106      1960.3833    
       197   0             -239.24767     -1255.212      -2261.2474     -2205.1216      700.7329      -19.237613      11.010311      36.032414      8.6928616      7.5279785      29.957106      1960.3833    
       198   0             -239.24767     -1255.212      -2261.2474     -2205.1216      700.7329      -19.237613      11.010311      36.032414      8.6928616      7.5279785      29.957106      1960.3833    
       199   0             -239.24767     -1255.212      -2261.2474     -2205.1216      700.7329      -19.237613      11.010311      36.032414      8.6928616      7.5279785      29.957106      1960.3833    
       200   0             -239.24767     -1255.212      -2261.2474     -2205.1216      700.7329      -19.237613      11.010311      36.032414      8.6928616      7.5279785      29.957106      1960.3833    
Loop time of 0.0381853 on 48 procs for 100 steps with 60 atoms

99.5% CPU use with 48 MPI tasks x no OpenMP threads

Minimization stats:
  Stopping criterion = max iterations
  Energy initial, next-to-last, final = 
     -238.737630640722  -239.247668163512  -239.247668163512
  Force two-norm initial, final = 2.1435683 4.9967097e-13
  Force max component initial, final = 0.40815889 1.1457502e-13
  Final line search alpha, max atom move = 1 1.1457502e-13
  Iterations, force evaluations = 100 184

MPI task timing breakdown:
Section |  min time  |  avg time  |  max time  |%varavg| %total
---------------------------------------------------------------
Pair    | 2.1092e-05 | 0.0095664  | 0.023209   |   6.2 | 25.05
Neigh   | 0          | 0          | 0          |   0.0 |  0.00
Comm    | 0.006505   | 0.017802   | 0.029432   |   4.7 | 46.62
Output  | 0.0036912  | 0.0038108  | 0.0047187  |   0.2 |  9.98
Modify  | 0          | 0          | 0          |   0.0 |  0.00
Other   |            | 0.007006   |            |       | 18.35

Nlocal:           1.25 ave           3 max           0 min
Histogram: 9 0 0 20 0 0 17 0 0 2
Nghost:         180.75 ave         183 max         177 min
Histogram: 2 5 0 4 0 5 12 0 16 4
Neighs:              0 ave           0 max           0 min
Histogram: 48 0 0 0 0 0 0 0 0 0
FullNghs:           52 ave         126 max           0 min
Histogram: 9 0 0 20 0 0 17 0 0 2

Total # of neighbors = 2496
Ave neighs/atom = 41.6
Neighbor list builds = 0
Dangerous builds = 0
Reading restart file ...
  restart file = 24 Mar 2022, LAMMPS = 24 Mar 2022
  restoring atom style atomic from restart
  triclinic box = (0.043463702 0.037770774 0.14287396) to (8.7363253 7.5657492 30.09998) with tilt (-4.3462811 0 0)
  3 by 2 by 8 MPI processor grid
  pair style nep stores no restart info
  60 atoms
  read_restart CPU = 0.001 seconds
Use the NEP4 potential with 3 atom types.
    type 0( Bi with Z = 83).
    type 1( Sb with Z = 51).
    type 2( Te with Z = 52).
    has universal ZBL with inner cutoff 1.25 A and outer cutoff 2.5 A.
    radial cutoff = 6 A.
    angular cutoff = 4 A.
    n_max_radial = 6.
    n_max_angular = 6.
    basis_size_radial = 8.
    basis_size_angular = 8.
    l_max_3body = 6.
    l_max_4body = 2.
    l_max_5body = 1.
    ANN = 56-60-1.
    number of neural network parameters = 10441.
    number of descriptor parameters = 1134.
    total number of parameters = 11575.
Changing box ...
  triclinic box = (0.043463702 0.037770774 0.14287396) to (8.7363253 7.5657492 30.09998) with tilt (-4.3462811 -2.9957106e-05 0)
Neighbor list info ...
  update every 1 steps, delay 0 steps, check yes
  max neighbors/atom: 2000, page size: 100000
  master list distance cutoff = 7
  ghost atom cutoff = 7
  1 neighbor lists, perpetual/occasional/extra = 1 0 0
  (1) pair nep, perpetual
      attributes: full, newton on
      pair build: full/nsq
      stencil: none
      bin: none
Setting up cg style minimization ...
  Unit style    : metal
  Current step  : 100
Per MPI rank memory allocation (min/avg/max) = 4.085 | 4.085 | 4.085 Mbytes
   Step          Temp          PotEng         Press           Pxx            Pyy            Pzz            Pxy            Pxz            Pyz             Lx             Ly             Lz           Volume    
       100   0             -238.73763     -2366.0045     -2627.3787     -2642.4531     -1828.1816     -11.33125       19.456678      43.509846      8.6928616      7.5279785      29.957106      1960.3833    
       101   0             -238.84183     -2725.6894     -2965.5937     -2961.8033     -2249.6712     -5.598232       23.085522      44.76256       8.6928616      7.5279785      29.957106      1960.3833    
       102   0             -238.92767     -2981.7915     -3208.9053     -3195.5741     -2540.8952     -1.5179557      26.631485      44.614867      8.6928616      7.5279785      29.957106      1960.3833    
       103   0             -238.99804     -3139.7194     -3365.2534     -3349.7324     -2704.1723      1.2712323      29.731208      43.470876      8.6928616      7.5279785      29.957106      1960.3833    
       104   0             -239.05539     -3201.7921     -3442.1356     -3429.6782     -2733.5623      3.0057482      32.096116      41.733533      8.6928616      7.5279785      29.957106      1960.3833    
       105   0             -239.10183     -3173.3444     -3447.3789     -3440.9633     -2631.6909      3.7787541      33.557521      39.801892      8.6928616      7.5279785      29.957106      1960.3833    
       106   0             -239.13919     -3061.2294     -3389.4868     -3389.6436     -2404.5577      3.5190044      34.115875      38.032704      8.6928616      7.5279785      29.957106      1960.3833    
       107   0             -239.1691      -2876.6779     -3278.0887     -3282.89       -2069.0552      1.9906913      33.981886      36.671144      8.6928616      7.5279785      29.957106      1960.3833    
       108   0             -239.19301     -2631.3727     -3123.21       -3128.6378     -1642.2704     -1.1476667      33.554732      35.774543      8.6928616      7.5279785      29.957106      1960.3833    
       109   0             -239.21184     -2343.4655     -2937.2913     -2938.1804     -1154.9249     -6.0928017      33.261516      35.181511      8.6928616      7.5279785      29.957106      1960.3833    
       110   0             -239.22434     -2077.4222     -2763.4865     -2756.6033     -712.17681     -11.528551      33.166053      34.678463      8.6928616      7.5279785      29.957106      1960.3833    
       111   0             -239.23312     -1827.7982     -2599.2478     -2583.0158     -301.1309      -17.072453      32.842772      34.362262      8.6928616      7.5279785      29.957106      1960.3833    
       112   0             -239.23921     -1590.3526     -2442.38       -2415.7433      87.065435     -22.296364      31.493378      34.372577      8.6928616      7.5279785      29.957106      1960.3833    
       113   0             -239.24313     -1366.539      -2294.7462     -2257.0508      452.17981     -26.485267      27.740961      34.547063      8.6928616      7.5279785      29.957106      1960.3833    
       114   0             -239.24527     -1169.2641     -2166.5222     -2118.2019      776.93176     -27.97637       18.768745      33.949794      8.6928616      7.5279785      29.957106      1960.3833    
       115   0             -239.24644     -1138.4414     -2154.8165     -2104.0929      843.58531     -22.94438       4.9988187      30.550027      8.6928616      7.5279785      29.957106      1960.3833    
       116   0             -239.24703     -1209.7065     -2210.5851     -2156.3959      737.86168     -25.288319      14.820341      36.285541      8.6928616      7.5279785      29.957106      1960.3833    
       117   0             -239.24717     -1268.8192     -2260.7148     -2211.9168      666.174       -20.725292      3.9993777      28.441959      8.6928616      7.5279785      29.957106      1960.3833    
       118   0             -239.24743     -1182.1173     -2201.1778     -2152.5096      807.33541     -16.013479     -6.2147875      23.456161      8.6928616      7.5279785      29.957106      1960.3833    
       119   0             -239.24758     -1199.6643     -2222.3544     -2160.3054      783.667       -22.956105      12.259683      38.50546       8.6928616      7.5279785      29.957106      1960.3833    
       120   0             -239.24761     -1248.0612     -2258.4478     -2199.2136      713.47795     -22.135856      12.454869      37.062927      8.6928616      7.5279785      29.957106      1960.3833    
       121   0             -239.24764     -1249.3522     -2256.1836     -2199.5367      707.66357     -19.949082      9.4795468      35.131555      8.6928616      7.5279785      29.957106      1960.3833    
       122   0             -239.24765     -1263.9219     -2268.0902     -2210.8544      687.17901     -19.705017      9.862283       35.987597      8.6928616      7.5279785      29.957106      1960.3833    
       123   0             -239.24765     -1263.1539     -2267.1534     -2211.0402      688.73175     -20.220669      11.878342      35.528569      8.6928616      7.5279785      29.957106      1960.3833    
       124   0             -239.24766     -1255.4379     -2261.0204     -2205.0421      699.74875     -20.230479      12.496353      35.537041      8.6928616      7.5279785      29.957106      1960.3833    
       125   0             -239.24767     -1253.185      -2259.977      -2203.2027      703.62463     -19.655072      11.553991      36.123422      8.6928616      7.5279785      29.957106      1960.3833    
       126   0             -239.24767     -1250.8316     -2258.481      -2201.2724      707.25869     -19.741187      11.923708      36.806284      8.6928616      7.5279785      29.957106      1960.3833    
       127   0             -239.24767     -1254.2328     -2261.0372     -2204.0555      702.3944      -19.65737       11.907078      36.732355      8.6928616      7.5279785      29.957106      1960.3833    
       128   0             -239.24767     -1255.5806     -2261.4591     -2205.2671      699.98442     -19.139299      11.069333      36.017612      8.6928616      7.5279785      29.957106      1960.3833    
       129   0             -239.24767     -1255.5722     -2261.3902     -2205.2671      699.94088     -18.889087      10.454066      35.973833      8.6928616      7.5279785      29.957106      1960.3833    
       130   0             -239.24767     -1256.3597     -2262.1862     -2205.8904      698.99762     -19.037686      10.641079      36.175572      8.6928616      7.5279785      29.957106      1960.3833    
       131   0             -239.24767     -1254.9052     -2261.2031     -2204.6795      701.16689     -19.420386      11.383622      36.371149      8.6928616      7.5279785      29.957106      1960.3833    
       132   0             -239.24767     -1255.14       -2261.4295     -2204.8658      700.87528     -19.492328      11.513414      36.404045      8.6928616      7.5279785      29.957106      1960.3833    
       133   0             -239.24767     -1255.0217     -2261.3256     -2204.7732      701.03355     -19.434846      11.37836       36.406559      8.6928616      7.5279785      29.957106      1960.3833    
       134   0             -239.24767     -1254.9912     -2261.2958     -2204.7444      701.06667     -19.405633      11.319349      36.4189        8.6928616      7.5279785      29.957106      1960.3833    
       135   0             -239.24767     -1255.1692     -2261.4159     -2204.8961      700.80433     -19.426144      11.371908      36.401318      8.6928616      7.5279785      29.957106      1960.3833    
       136   0             -239.24767     -1255.1156     -2261.344      -2204.8614      700.85864     -19.421723      11.367059      36.376965      8.6928616      7.5279785      29.957106      1960.3833    
       137   0             -239.24767     -1255.2588     -2261.461      -2204.9699      700.65442     -19.407951      11.331318      36.390267      8.6928616      7.5279785      29.957106      1960.3833    
       138   0             -239.24767     -1255.2054     -2261.4257     -2204.9202      700.72967     -19.418561      11.350196      36.405469      8.6928616      7.5279785      29.957106      1960.3833    
       139   0             -239.24767     -1255.2093     -2261.4309     -2204.9234      700.72624     -19.433807      11.384493      36.407756      8.6928616      7.5279785      29.957106      1960.3833    
       140   0             -239.24767     -1255.2184     -2261.4418     -2204.9326      700.71923     -19.435013      11.388746      36.407733      8.6928616      7.5279785      29.957106      1960.3833    
       141   0             -239.24767     -1255.1653     -2261.4036     -2204.8881      700.7959      -19.430867      11.381046      36.411593      8.6928616      7.5279785      29.957106      1960.3833    
       142   0             -239.24767     -1255.2016     -2261.4338     -2204.9177      700.74671     -19.428668      11.378662      36.411596      8.6928616      7.5279785      29.957106      1960.3833    
       143   0             -239.24767     -1255.1967     -2261.4261     -2204.9169      700.75284     -19.429023      11.382455      36.406055      8.6928616      7.5279785      29.957106      1960.3833    
       144   0             -239.24767     -1255.2054     -2261.4316     -2204.9245      700.73996     -19.427865      11.381674      36.404375      8.6928616      7.5279785      29.957106      1960.3833    
       145   0             -239.24767     -1255.212      -2261.4375     -2204.9296      700.73093     -19.426372      11.378208      36.405124      8.6928616      7.5279785      29.957106      1960.3833    
       146   0             -239.24767     -1255.2072     -2261.4339     -2204.9257      700.73811     -19.425717      11.376395      36.405541      8.6928616      7.5279785      29.957106      1960.3833    
       147   0             -239.24767     -1255.2087     -2261.4356     -2204.9271      700.73676     -19.427501      11.380595      36.405703      8.6928616      7.5279785      29.957106      1960.3833    
       148   0             -239.24767     -1255.2055     -2261.4334     -2204.9243      700.74141     -19.427877      11.381659      36.406228      8.6928616      7.5279785      29.957106      1960.3833    
       149   0             -239.24767     -1255.2064     -2261.4344     -2204.925       700.74019     -19.427343      11.380774      36.406742      8.6928616      7.5279785      29.957106      1960.3833    
       150   0             -239.24767     -1255.2089     -2261.4361     -2204.9273      700.73682     -19.427146      11.380522      36.406113      8.6928616      7.5279785      29.957106      1960.3833    
       151   0             -239.24767     -1255.2076     -2261.4349     -2204.9264      700.73852     -19.427019      11.380402      36.405907      8.6928616      7.5279785      29.957106      1960.3833    
       152   0             -239.24767     -1255.2093     -2261.4363     -2204.9277      700.73616     -19.426822      11.380219      36.406099      8.6928616      7.5279785      29.957106      1960.3833    
       153   0             -239.24767     -1255.2093     -2261.4364     -2204.9278      700.73613     -19.426786      11.380164      36.406233      8.6928616      7.5279785      29.957106      1960.3833    
       154   0             -239.24767     -1255.2087     -2261.4359     -2204.9274      700.73705     -19.426842      11.380275      36.406079      8.6928616      7.5279785      29.957106      1960.3833    
       155   0             -239.24767     -1255.2092     -2261.4363     -2204.9278      700.73635     -19.426923      11.380472      36.406136      8.6928616      7.5279785      29.957106      1960.3833    
       156   0             -239.24767     -1255.2086     -2261.4359     -2204.9272      700.73723     -19.426986      11.380626      36.406326      8.6928616      7.5279785      29.957106      1960.3833    
       157   0             -239.24767     -1255.2088     -2261.436      -2204.9273      700.73702     -19.426973      11.380592      36.406398      8.6928616      7.5279785      29.957106      1960.3833    
       158   0             -239.24767     -1255.2089     -2261.4361     -2204.9273      700.73686     -19.426956      11.380552      36.406358      8.6928616      7.5279785      29.957106      1960.3833    
       159   0             -239.24767     -1255.2089     -2261.4361     -2204.9274      700.73678     -19.426938      11.380509      36.406273      8.6928616      7.5279785      29.957106      1960.3833    
       160   0             -239.24767     -1255.209      -2261.4361     -2204.9275      700.73665     -19.426948      11.380531      36.406288      8.6928616      7.5279785      29.957106      1960.3833    
       161   0             -239.24767     -1255.2088     -2261.436      -2204.9273      700.7369      -19.426952      11.380541      36.406315      8.6928616      7.5279785      29.957106      1960.3833    
       162   0             -239.24767     -1255.2088     -2261.436      -2204.9273      700.73689     -19.426949      11.380534      36.40631       8.6928616      7.5279785      29.957106      1960.3833    
       163   0             -239.24767     -1255.2088     -2261.436      -2204.9273      700.73694     -19.426955      11.380545      36.406305      8.6928616      7.5279785      29.957106      1960.3833    
       164   0             -239.24767     -1255.2088     -2261.436      -2204.9273      700.73694     -19.426963      11.38056       36.40632       8.6928616      7.5279785      29.957106      1960.3833    
       165   0             -239.24767     -1255.2088     -2261.436      -2204.9273      700.73686     -19.426964      11.380561      36.406319      8.6928616      7.5279785      29.957106      1960.3833    
       166   0             -239.24767     -1255.2088     -2261.436      -2204.9273      700.73687     -19.426961      11.380553      36.406306      8.6928616      7.5279785      29.957106      1960.3833    
       167   0             -239.24767     -1255.2088     -2261.436      -2204.9273      700.73688     -19.426959      11.38055       36.406305      8.6928616      7.5279785      29.957106      1960.3833    
       168   0             -239.24767     -1255.2088     -2261.436      -2204.9273      700.7369      -19.426959      11.380549      36.406308      8.6928616      7.5279785      29.957106      1960.3833    
       169   0             -239.24767     -1255.2088     -2261.436      -2204.9273      700.73691     -19.426958      11.380548      36.406307      8.6928616      7.5279785      29.957106      1960.3833    
       170   0             -239.24767     -1255.2088     -2261.436      -2204.9273      700.73689     -19.426959      11.380549      36.406305      8.6928616      7.5279785      29.957106      1960.3833    
       171   0             -239.24767     -1255.2088     -2261.436      -2204.9273      700.73689     -19.42696       11.380551      36.406306      8.6928616      7.5279785      29.957106      1960.3833    
       172   0             -239.24767     -1255.2088     -2261.436      -2204.9273      700.73689     -19.42696       11.380552      36.406307      8.6928616      7.5279785      29.957106      1960.3833    
       173   0             -239.24767     -1255.2088     -2261.436      -2204.9273      700.73689     -19.426961      11.380553      36.406308      8.6928616      7.5279785      29.957106      1960.3833    
       174   0             -239.24767     -1255.2088     -2261.436      -2204.9273      700.73689     -19.42696       11.380553      36.406307      8.6928616      7.5279785      29.957106      1960.3833    
       175   0             -239.24767     -1255.2088     -2261.436      -2204.9273      700.73689     -19.42696       11.380552      36.406307      8.6928616      7.5279785      29.957106      1960.3833    
       176   0             -239.24767     -1255.2088     -2261.436      -2204.9273      700.73689     -19.42696       11.380552      36.406307      8.6928616      7.5279785      29.957106      1960.3833    
       177   0             -239.24767     -1255.2088     -2261.436      -2204.9273      700.73689     -19.42696       11.380552      36.406307      8.6928616      7.5279785      29.957106      1960.3833    
       178   0             -239.24767     -1255.2088     -2261.436      -2204.9273      700.73689     -19.42696       11.380552      36.406307      8.6928616      7.5279785      29.957106      1960.3833    
       179   0             -239.24767     -1255.2088     -2261.436      -2204.9273      700.73689     -19.42696       11.380552      36.406307      8.6928616      7.5279785      29.957106      1960.3833    
       180   0             -239.24767     -1255.2088     -2261.436      -2204.9273      700.73689     -19.42696       11.380552      36.406307      8.6928616      7.5279785      29.957106      1960.3833    
       181   0             -239.24767     -1255.2088     -2261.436      -2204.9273      700.73689     -19.42696       11.380552      36.406307      8.6928616      7.5279785      29.957106      1960.3833    
       182   0             -239.24767     -1255.2088     -2261.436      -2204.9273      700.73689     -19.42696       11.380552      36.406307      8.6928616      7.5279785      29.957106      1960.3833    
       183   0             -239.24767     -1255.2088     -2261.436      -2204.9273      700.73689     -19.42696       11.380552      36.406307      8.6928616      7.5279785      29.957106      1960.3833    
       184   0             -239.24767     -1255.2088     -2261.436      -2204.9273      700.73689     -19.42696       11.380552      36.406307      8.6928616      7.5279785      29.957106      1960.3833    
       185   0             -239.24767     -1255.2088     -2261.436      -2204.9273      700.73689     -19.42696       11.380552      36.406307      8.6928616      7.5279785      29.957106      1960.3833    
       186   0             -239.24767     -1255.2088     -2261.436      -2204.9273      700.73689     -19.42696       11.380552      36.406307      8.6928616      7.5279785      29.957106      1960.3833    
       187   0             -239.24767     -1255.2088     -2261.436      -2204.9273      700.73689     -19.42696       11.380552      36.406307      8.6928616      7.5279785      29.957106      1960.3833    
       188   0             -239.24767     -1255.2088     -2261.436      -2204.9273      700.73689     -19.42696       11.380552      36.406307      8.6928616      7.5279785      29.957106      1960.3833    
       189   0             -239.24767     -1255.2088     -2261.436      -2204.9273      700.73689     -19.42696       11.380552      36.406307      8.6928616      7.5279785      29.957106      1960.3833    
       190   0             -239.24767     -1255.2088     -2261.436      -2204.9273      700.73689     -19.42696       11.380552      36.406307      8.6928616      7.5279785      29.957106      1960.3833    
       191   0             -239.24767     -1255.2088     -2261.436      -2204.9273      700.73689     -19.42696       11.380552      36.406307      8.6928616      7.5279785      29.957106      1960.3833    
       192   0             -239.24767     -1255.2088     -2261.436      -2204.9273      700.73689     -19.42696       11.380552      36.406307      8.6928616      7.5279785      29.957106      1960.3833    
       193   0             -239.24767     -1255.2088     -2261.436      -2204.9273      700.73689     -19.42696       11.380552      36.406307      8.6928616      7.5279785      29.957106      1960.3833    
       194   0             -239.24767     -1255.2088     -2261.436      -2204.9273      700.73689     -19.42696       11.380552      36.406307      8.6928616      7.5279785      29.957106      1960.3833    
       195   0             -239.24767     -1255.2088     -2261.436      -2204.9273      700.73689     -19.42696       11.380552      36.406307      8.6928616      7.5279785      29.957106      1960.3833    
       196   0             -239.24767     -1255.2088     -2261.436      -2204.9273      700.73689     -19.42696       11.380552      36.406307      8.6928616      7.5279785      29.957106      1960.3833    
       197   0             -239.24767     -1255.2088     -2261.436      -2204.9273      700.73689     -19.42696       11.380552      36.406307      8.6928616      7.5279785      29.957106      1960.3833    
       198   0             -239.24767     -1255.2088     -2261.436      -2204.9273      700.73689     -19.42696       11.380552      36.406307      8.6928616      7.5279785      29.957106      1960.3833    
       199   0             -239.24767     -1255.2088     -2261.436      -2204.9273      700.73689     -19.42696       11.380552      36.406307      8.6928616      7.5279785      29.957106      1960.3833    
       200   0             -239.24767     -1255.2088     -2261.436      -2204.9273      700.73689     -19.42696       11.380552      36.406307      8.6928616      7.5279785      29.957106      1960.3833    
Loop time of 0.0377595 on 48 procs for 100 steps with 60 atoms

99.5% CPU use with 48 MPI tasks x no OpenMP threads

Minimization stats:
  Stopping criterion = max iterations
  Energy initial, next-to-last, final = 
     -238.737630564419  -239.247668105496  -239.247668105496
  Force two-norm initial, final = 2.1435682 5.0123807e-13
  Force max component initial, final = 0.40815892 1.3741785e-13
  Final line search alpha, max atom move = 1 1.3741785e-13
  Iterations, force evaluations = 100 184

MPI task timing breakdown:
Section |  min time  |  avg time  |  max time  |%varavg| %total
---------------------------------------------------------------
Pair    | 2.1399e-05 | 0.0094497  | 0.022774   |   6.2 | 25.03
Neigh   | 0          | 0          | 0          |   0.0 |  0.00
Comm    | 0.0062368  | 0.017354   | 0.028831   |   4.8 | 45.96
Output  | 0.0040767  | 0.0041499  | 0.0045882  |   0.1 | 10.99
Modify  | 0          | 0          | 0          |   0.0 |  0.00
Other   |            | 0.006806   |            |       | 18.02

Nlocal:           1.25 ave           3 max           0 min
Histogram: 9 0 0 20 0 0 17 0 0 2
Nghost:         180.75 ave         183 max         177 min
Histogram: 2 5 0 4 0 5 12 0 16 4
Neighs:              0 ave           0 max           0 min
Histogram: 48 0 0 0 0 0 0 0 0 0
FullNghs:           52 ave         126 max           0 min
Histogram: 9 0 0 20 0 0 17 0 0 2

Total # of neighbors = 2496
Ave neighs/atom = 41.6
Neighbor list builds = 0
Dangerous builds = 0
Reading restart file ...
  restart file = 24 Mar 2022, LAMMPS = 24 Mar 2022
  restoring atom style atomic from restart
  triclinic box = (0.043463702 0.037770774 0.14287396) to (8.7363253 7.5657492 30.09998) with tilt (-4.3462811 0 0)
  3 by 2 by 8 MPI processor grid
  pair style nep stores no restart info
  60 atoms
  read_restart CPU = 0.021 seconds
Use the NEP4 potential with 3 atom types.
    type 0( Bi with Z = 83).
    type 1( Sb with Z = 51).
    type 2( Te with Z = 52).
    has universal ZBL with inner cutoff 1.25 A and outer cutoff 2.5 A.
    radial cutoff = 6 A.
    angular cutoff = 4 A.
    n_max_radial = 6.
    n_max_angular = 6.
    basis_size_radial = 8.
    basis_size_angular = 8.
    l_max_3body = 6.
    l_max_4body = 2.
    l_max_5body = 1.
    ANN = 56-60-1.
    number of neural network parameters = 10441.
    number of descriptor parameters = 1134.
    total number of parameters = 11575.
Changing box ...
  triclinic box = (0.043463702 0.037770774 0.14287396) to (8.7363253 7.5657492 30.09998) with tilt (-4.3462811 2.9957106e-05 0)
Neighbor list info ...
  update every 1 steps, delay 0 steps, check yes
  max neighbors/atom: 2000, page size: 100000
  master list distance cutoff = 7
  ghost atom cutoff = 7
  1 neighbor lists, perpetual/occasional/extra = 1 0 0
  (1) pair nep, perpetual
      attributes: full, newton on
      pair build: full/nsq
      stencil: none
      bin: none
Setting up cg style minimization ...
  Unit style    : metal
  Current step  : 100
Per MPI rank memory allocation (min/avg/max) = 4.085 | 4.085 | 4.085 Mbytes
   Step          Temp          PotEng         Press           Pxx            Pyy            Pzz            Pxy            Pxz            Pyz             Lx             Ly             Lz           Volume    
       100   0             -238.73763     -2366.0041     -2627.3785     -2642.453      -1828.1809     -10.733802      18.244774      43.509915      8.6928616      7.5279785      29.957106      1960.3833    
       101   0             -238.84183     -2725.6891     -2965.5935     -2961.8033     -2249.6706     -5.0214127      21.916973      44.762573      8.6928616      7.5279785      29.957106      1960.3833    
       102   0             -238.92767     -2981.7912     -3208.905      -3195.574      -2540.8946     -0.96021869     25.504171      44.61487       8.6928616      7.5279785      29.957106      1960.3833    
       103   0             -238.99804     -3139.719      -3365.2532     -3349.7323     -2704.1716      1.8109794      28.643583      43.470906      8.6928616      7.5279785      29.957106      1960.3833    
       104   0             -239.05539     -3201.7916     -3442.1354     -3429.678      -2733.5614      3.528242       31.047077      41.733631      8.6928616      7.5279785      29.957106      1960.3833    
       105   0             -239.10183     -3173.3438     -3447.3787     -3440.963      -2631.6898      4.2844827      32.546212      39.802102      8.6928616      7.5279785      29.957106      1960.3833    
       106   0             -239.13919     -3061.2287     -3389.4866     -3389.6432     -2404.5563      4.0083265      33.14147       38.033088      8.6928616      7.5279785      29.957106      1960.3833    
       107   0             -239.1691      -2876.6772     -3278.0886     -3282.8895     -2069.0534      2.4639622      33.043333      36.671781      8.6928616      7.5279785      29.957106      1960.3833    
       108   0             -239.19301     -2631.3719     -3123.2102     -3128.6371     -1642.2683     -0.69000011     32.650577      35.775535      8.6928616      7.5279785      29.957106      1960.3833    
       109   0             -239.21184     -2343.4657     -2937.2925     -2938.1803     -1154.9243     -5.6499472      32.389406      35.182983      8.6928616      7.5279785      29.957106      1960.3833    
       110   0             -239.22434     -2077.4227     -2763.4882     -2756.6033     -712.17667     -11.097508      32.318809      34.680458      8.6928616      7.5279785      29.957106      1960.3833    
       111   0             -239.23312     -1827.799      -2599.2501     -2583.0158     -301.13118     -16.651991      32.017287      34.364839      8.6928616      7.5279785      29.957106      1960.3833    
       112   0             -239.23921     -1590.3539     -2442.383      -2415.7433      87.064609     -21.886304      30.688904      34.375822      8.6928616      7.5279785      29.957106      1960.3833    
       113   0             -239.24313     -1366.5409     -2294.75       -2257.0508      452.17817     -26.08625       26.95856       34.551111      8.6928616      7.5279785      29.957106      1960.3833    
       114   0             -239.24527     -1169.267      -2166.5273     -2118.2023      776.92867     -27.589887      18.011297      33.954904      8.6928616      7.5279785      29.957106      1960.3833    
       115   0             -239.24644     -1138.4454     -2154.823      -2104.0937      843.5803      -22.566461      4.2584187      30.556187      8.6928616      7.5279785      29.957106      1960.3833    
       116   0             -239.24703     -1209.7099     -2210.5907     -2156.3964      737.85739     -24.905463      14.070106      36.291143      8.6928616      7.5279785      29.957106      1960.3833    
       117   0             -239.24717     -1268.8235     -2260.721      -2211.9175      666.16807     -20.344496      3.2538275      28.448161      8.6928616      7.5279785      29.957106      1960.3833    
       118   0             -239.24743     -1182.1249     -2201.187      -2152.5135      807.32579     -15.63583      -6.9536866      23.461931      8.6928616      7.5279785      29.957106      1960.3833    
       119   0             -239.24758     -1199.6636     -2222.3563     -2160.3025      783.66817     -22.577194      11.517427      38.510711      8.6928616      7.5279785      29.957106      1960.3833    
       120   0             -239.24761     -1248.0641     -2258.453      -2199.2135      713.47434     -21.756313      11.711403      37.06858       8.6928616      7.5279785      29.957106      1960.3833    
       121   0             -239.24764     -1249.3557     -2256.1887     -2199.5373      707.65886     -19.568513      8.7344374      35.13659       8.6928616      7.5279785      29.957106      1960.3833    
       122   0             -239.24765     -1263.9243     -2268.0946     -2210.854       687.17577     -19.324082      9.116451       35.992927      8.6928616      7.5279785      29.957106      1960.3833    
       123   0             -239.24765     -1263.1582     -2267.1595     -2211.0413      688.7261      -19.839231      11.131417      35.53398       8.6928616      7.5279785      29.957106      1960.3833    
       124   0             -239.24766     -1255.4393     -2261.024      -2205.0411      699.74728     -19.84891       11.74927       35.542086      8.6928616      7.5279785      29.957106      1960.3833    
       125   0             -239.24767     -1253.1881     -2259.982      -2203.2031      703.62088     -19.273656      10.807357      36.128414      8.6928616      7.5279785      29.957106      1960.3833    
       126   0             -239.24767     -1250.834      -2258.4856     -2201.2723      707.25575     -19.359989      11.177511      36.811298      8.6928616      7.5279785      29.957106      1960.3833    
       127   0             -239.24767     -1254.2347     -2261.0414     -2204.0549      702.39227     -19.276391      11.161282      36.737537      8.6928616      7.5279785      29.957106      1960.3833    
       128   0             -239.24767     -1255.5841     -2261.4644     -2205.2678      699.98004     -18.75856       10.324041      36.02273       8.6928616      7.5279785      29.957106      1960.3833    
       129   0             -239.24767     -1255.5749     -2261.395      -2205.2672      699.93754     -18.508483      9.7091009      35.978968      8.6928616      7.5279785      29.957106      1960.3833    
       130   0             -239.24767     -1256.3629     -2262.1914     -2205.8909      698.9936      -18.656953      9.8958663      36.180714      8.6928616      7.5279785      29.957106      1960.3833    
       131   0             -239.24767     -1254.9083     -2261.2081     -2204.6799      701.1631      -19.039456      10.638001      36.376266      8.6928616      7.5279785      29.957106      1960.3833    
       132   0             -239.24767     -1255.1429     -2261.4344     -2204.866       700.87178     -19.111394      10.767788      36.409152      8.6928616      7.5279785      29.957106      1960.3833    
       133   0             -239.24767     -1255.0248     -2261.3306     -2204.7736      701.02982     -19.053934      10.632785      36.411647      8.6928616      7.5279785      29.957106      1960.3833    
       134   0             -239.24767     -1254.994      -2261.3007     -2204.7446      701.0632      -19.024722      10.573778      36.423973      8.6928616      7.5279785      29.957106      1960.3833    
       135   0             -239.24767     -1255.1722     -2261.4209     -2204.8964      700.80065     -19.045236      10.626343      36.406393      8.6928616      7.5279785      29.957106      1960.3833    
       136   0             -239.24767     -1255.1185     -2261.3489     -2204.8618      700.85504     -19.040826      10.621521      36.382037      8.6928616      7.5279785      29.957106      1960.3833    
       137   0             -239.24767     -1255.2618     -2261.4659     -2204.9702      700.65082     -19.027056      10.58579       36.395339      8.6928616      7.5279785      29.957106      1960.3833    
       138   0             -239.24767     -1255.2084     -2261.4307     -2204.9206      700.72601     -19.037656      10.604645      36.410551      8.6928616      7.5279785      29.957106      1960.3833    
       139   0             -239.24767     -1255.2123     -2261.4358     -2204.9237      700.72264     -19.052896      10.638931      36.412841      8.6928616      7.5279785      29.957106      1960.3833    
       140   0             -239.24767     -1255.2214     -2261.4468     -2204.933       700.71559     -19.054098      10.643175      36.412813      8.6928616      7.5279785      29.957106      1960.3833    
       141   0             -239.24767     -1255.1682     -2261.4086     -2204.8884      700.7923      -19.049953      10.635479      36.41667       8.6928616      7.5279785      29.957106      1960.3833    
       142   0             -239.24767     -1255.2046     -2261.4387     -2204.9181      700.74313     -19.047756      10.633098      36.416674      8.6928616      7.5279785      29.957106      1960.3833    
       143   0             -239.24767     -1255.1997     -2261.431      -2204.9172      700.74922     -19.048111      10.636893      36.411133      8.6928616      7.5279785      29.957106      1960.3833    
       144   0             -239.24767     -1255.2083     -2261.4365     -2204.9248      700.73637     -19.046955      10.636115      36.409452      8.6928616      7.5279785      29.957106      1960.3833    
       145   0             -239.24767     -1255.215      -2261.4424     -2204.9299      700.72731     -19.045463      10.632651      36.410202      8.6928616      7.5279785      29.957106      1960.3833    
       146   0             -239.24767     -1255.2102     -2261.4389     -2204.9261      700.7345      -19.044807      10.630836      36.410619      8.6928616      7.5279785      29.957106      1960.3833    
       147   0             -239.24767     -1255.2116     -2261.4406     -2204.9275      700.73315     -19.04659       10.635034      36.410781      8.6928616      7.5279785      29.957106      1960.3833    
       148   0             -239.24767     -1255.2084     -2261.4384     -2204.9247      700.7378      -19.046966      10.636099      36.411306      8.6928616      7.5279785      29.957106      1960.3833    
       149   0             -239.24767     -1255.2094     -2261.4394     -2204.9253      700.73658     -19.046432      10.635213      36.41182       8.6928616      7.5279785      29.957106      1960.3833    
       150   0             -239.24767     -1255.2118     -2261.441      -2204.9277      700.73321     -19.046235      10.634962      36.411191      8.6928616      7.5279785      29.957106      1960.3833    
       151   0             -239.24767     -1255.2106     -2261.4398     -2204.9268      700.73491     -19.046108      10.634842      36.410985      8.6928616      7.5279785      29.957106      1960.3833    
       152   0             -239.24767     -1255.2122     -2261.4412     -2204.9281      700.73255     -19.045911      10.634659      36.411176      8.6928616      7.5279785      29.957106      1960.3833    
       153   0             -239.24767     -1255.2123     -2261.4413     -2204.9281      700.73252     -19.045876      10.634604      36.411311      8.6928616      7.5279785      29.957106      1960.3833    
       154   0             -239.24767     -1255.2117     -2261.4408     -2204.9277      700.73344     -19.045932      10.634716      36.411157      8.6928616      7.5279785      29.957106      1960.3833    
       155   0             -239.24767     -1255.2122     -2261.4413     -2204.9281      700.73274     -19.046012      10.634912      36.411214      8.6928616      7.5279785      29.957106      1960.3833    
       156   0             -239.24767     -1255.2116     -2261.4408     -2204.9275      700.73362     -19.046075      10.635066      36.411404      8.6928616      7.5279785      29.957106      1960.3833    
       157   0             -239.24767     -1255.2117     -2261.441      -2204.9276      700.73341     -19.046062      10.635032      36.411476      8.6928616      7.5279785      29.957106      1960.3833    
       158   0             -239.24767     -1255.2118     -2261.441      -2204.9277      700.73325     -19.046045      10.634992      36.411436      8.6928616      7.5279785      29.957106      1960.3833    
       159   0             -239.24767     -1255.2119     -2261.441      -2204.9277      700.73317     -19.046028      10.634949      36.411351      8.6928616      7.5279785      29.957106      1960.3833    
       160   0             -239.24767     -1255.2119     -2261.4411     -2204.9278      700.73304     -19.046038      10.634971      36.411366      8.6928616      7.5279785      29.957106      1960.3833    
       161   0             -239.24767     -1255.2118     -2261.4409     -2204.9276      700.73329     -19.046041      10.634981      36.411393      8.6928616      7.5279785      29.957106      1960.3833    
       162   0             -239.24767     -1255.2118     -2261.4409     -2204.9276      700.73329     -19.046038      10.634974      36.411388      8.6928616      7.5279785      29.957106      1960.3833    
       163   0             -239.24767     -1255.2117     -2261.4409     -2204.9276      700.73333     -19.046045      10.634985      36.411383      8.6928616      7.5279785      29.957106      1960.3833    
       164   0             -239.24767     -1255.2117     -2261.4409     -2204.9276      700.73333     -19.046053      10.635         36.411398      8.6928616      7.5279785      29.957106      1960.3833    
       165   0             -239.24767     -1255.2118     -2261.4409     -2204.9276      700.73325     -19.046054      10.635001      36.411397      8.6928616      7.5279785      29.957106      1960.3833    
       166   0             -239.24767     -1255.2118     -2261.4409     -2204.9276      700.73326     -19.04605       10.634993      36.411384      8.6928616      7.5279785      29.957106      1960.3833    
       167   0             -239.24767     -1255.2118     -2261.4409     -2204.9276      700.73327     -19.046048      10.63499       36.411383      8.6928616      7.5279785      29.957106      1960.3833    
       168   0             -239.24767     -1255.2117     -2261.4409     -2204.9276      700.73329     -19.046048      10.634989      36.411386      8.6928616      7.5279785      29.957106      1960.3833    
       169   0             -239.24767     -1255.2117     -2261.4409     -2204.9276      700.7333      -19.046047      10.634988      36.411385      8.6928616      7.5279785      29.957106      1960.3833    
       170   0             -239.24767     -1255.2118     -2261.4409     -2204.9276      700.73328     -19.046048      10.634989      36.411383      8.6928616      7.5279785      29.957106      1960.3833    
       171   0             -239.24767     -1255.2118     -2261.4409     -2204.9276      700.73328     -19.046049      10.634991      36.411384      8.6928616      7.5279785      29.957106      1960.3833    
       172   0             -239.24767     -1255.2118     -2261.4409     -2204.9276      700.73328     -19.046049      10.634992      36.411385      8.6928616      7.5279785      29.957106      1960.3833    
       173   0             -239.24767     -1255.2118     -2261.4409     -2204.9276      700.73328     -19.04605       10.634993      36.411386      8.6928616      7.5279785      29.957106      1960.3833    
       174   0             -239.24767     -1255.2118     -2261.4409     -2204.9276      700.73329     -19.04605       10.634993      36.411385      8.6928616      7.5279785      29.957106      1960.3833    
       175   0             -239.24767     -1255.2118     -2261.4409     -2204.9276      700.73328     -19.04605       10.634992      36.411385      8.6928616      7.5279785      29.957106      1960.3833    
       176   0             -239.24767     -1255.2118     -2261.4409     -2204.9276      700.73328     -19.04605       10.634993      36.411385      8.6928616      7.5279785      29.957106      1960.3833    
       177   0             -239.24767     -1255.2118     -2261.4409     -2204.9276      700.73328     -19.04605       10.634992      36.411385      8.6928616      7.5279785      29.957106      1960.3833    
       178   0             -239.24767     -1255.2118     -2261.4409     -2204.9276      700.73328     -19.04605       10.634992      36.411385      8.6928616      7.5279785      29.957106      1960.3833    
       179   0             -239.24767     -1255.2118     -2261.4409     -2204.9276      700.73328     -19.04605       10.634992      36.411385      8.6928616      7.5279785      29.957106      1960.3833    
       180   0             -239.24767     -1255.2118     -2261.4409     -2204.9276      700.73328     -19.04605       10.634992      36.411385      8.6928616      7.5279785      29.957106      1960.3833    
       181   0             -239.24767     -1255.2118     -2261.4409     -2204.9276      700.73328     -19.04605       10.634992      36.411385      8.6928616      7.5279785      29.957106      1960.3833    
       182   0             -239.24767     -1255.2118     -2261.4409     -2204.9276      700.73328     -19.04605       10.634992      36.411385      8.6928616      7.5279785      29.957106      1960.3833    
       183   0             -239.24767     -1255.2118     -2261.4409     -2204.9276      700.73328     -19.04605       10.634992      36.411385      8.6928616      7.5279785      29.957106      1960.3833    
       184   0             -239.24767     -1255.2118     -2261.4409     -2204.9276      700.73328     -19.04605       10.634992      36.411385      8.6928616      7.5279785      29.957106      1960.3833    
       185   0             -239.24767     -1255.2118     -2261.4409     -2204.9276      700.73328     -19.04605       10.634992      36.411385      8.6928616      7.5279785      29.957106      1960.3833    
       186   0             -239.24767     -1255.2118     -2261.4409     -2204.9276      700.73328     -19.04605       10.634992      36.411385      8.6928616      7.5279785      29.957106      1960.3833    
       187   0             -239.24767     -1255.2118     -2261.4409     -2204.9276      700.73328     -19.04605       10.634992      36.411385      8.6928616      7.5279785      29.957106      1960.3833    
       188   0             -239.24767     -1255.2118     -2261.4409     -2204.9276      700.73328     -19.04605       10.634992      36.411385      8.6928616      7.5279785      29.957106      1960.3833    
       189   0             -239.24767     -1255.2118     -2261.4409     -2204.9276      700.73328     -19.04605       10.634992      36.411385      8.6928616      7.5279785      29.957106      1960.3833    
       190   0             -239.24767     -1255.2118     -2261.4409     -2204.9276      700.73328     -19.04605       10.634992      36.411385      8.6928616      7.5279785      29.957106      1960.3833    
       191   0             -239.24767     -1255.2118     -2261.4409     -2204.9276      700.73328     -19.04605       10.634992      36.411385      8.6928616      7.5279785      29.957106      1960.3833    
       192   0             -239.24767     -1255.2118     -2261.4409     -2204.9276      700.73328     -19.04605       10.634992      36.411385      8.6928616      7.5279785      29.957106      1960.3833    
       193   0             -239.24767     -1255.2118     -2261.4409     -2204.9276      700.73328     -19.04605       10.634992      36.411385      8.6928616      7.5279785      29.957106      1960.3833    
       194   0             -239.24767     -1255.2118     -2261.4409     -2204.9276      700.73328     -19.04605       10.634992      36.411385      8.6928616      7.5279785      29.957106      1960.3833    
       195   0             -239.24767     -1255.2118     -2261.4409     -2204.9276      700.73328     -19.04605       10.634992      36.411385      8.6928616      7.5279785      29.957106      1960.3833    
       196   0             -239.24767     -1255.2118     -2261.4409     -2204.9276      700.73328     -19.04605       10.634992      36.411385      8.6928616      7.5279785      29.957106      1960.3833    
       197   0             -239.24767     -1255.2118     -2261.4409     -2204.9276      700.73328     -19.04605       10.634992      36.411385      8.6928616      7.5279785      29.957106      1960.3833    
       198   0             -239.24767     -1255.2118     -2261.4409     -2204.9276      700.73328     -19.04605       10.634992      36.411385      8.6928616      7.5279785      29.957106      1960.3833    
       199   0             -239.24767     -1255.2118     -2261.4409     -2204.9276      700.73328     -19.04605       10.634992      36.411385      8.6928616      7.5279785      29.957106      1960.3833    
       200   0             -239.24767     -1255.2118     -2261.4409     -2204.9276      700.73328     -19.04605       10.634992      36.411385      8.6928616      7.5279785      29.957106      1960.3833    
Loop time of 0.107859 on 48 procs for 100 steps with 60 atoms

98.3% CPU use with 48 MPI tasks x no OpenMP threads

Minimization stats:
  Stopping criterion = max iterations
  Energy initial, next-to-last, final = 
      -238.73763061055  -239.247668132434  -239.247668132434
  Force two-norm initial, final = 2.1435682 5.0070692e-13
  Force max component initial, final = 0.40815881 9.7005737e-14
  Final line search alpha, max atom move = 1 9.7005737e-14
  Iterations, force evaluations = 100 184

MPI task timing breakdown:
Section |  min time  |  avg time  |  max time  |%varavg| %total
---------------------------------------------------------------
Pair    | 1.9316e-05 | 0.0095152  | 0.022972   |   6.2 |  8.82
Neigh   | 0          | 0          | 0          |   0.0 |  0.00
Comm    | 0.0063464  | 0.017957   | 0.029632   |   4.6 | 16.65
Output  | 0.0039743  | 0.005491   | 0.073257   |  13.3 |  5.09
Modify  | 0          | 0          | 0          |   0.0 |  0.00
Other   |            | 0.0749     |            |       | 69.44

Nlocal:           1.25 ave           3 max           0 min
Histogram: 9 0 0 20 0 0 17 0 0 2
Nghost:         180.75 ave         183 max         177 min
Histogram: 2 5 0 4 0 5 12 0 16 4
Neighs:              0 ave           0 max           0 min
Histogram: 48 0 0 0 0 0 0 0 0 0
FullNghs:           52 ave         126 max           0 min
Histogram: 9 0 0 20 0 0 17 0 0 2

Total # of neighbors = 2496
Ave neighs/atom = 41.6
Neighbor list builds = 0
Dangerous builds = 0
Reading restart file ...
  restart file = 24 Mar 2022, LAMMPS = 24 Mar 2022
  restoring atom style atomic from restart
  triclinic box = (0.043463702 0.037770774 0.14287396) to (8.7363253 7.5657492 30.09998) with tilt (-4.3462811 0 0)
  3 by 2 by 8 MPI processor grid
  pair style nep stores no restart info
  60 atoms
  read_restart CPU = 0.040 seconds
Use the NEP4 potential with 3 atom types.
    type 0( Bi with Z = 83).
    type 1( Sb with Z = 51).
    type 2( Te with Z = 52).
    has universal ZBL with inner cutoff 1.25 A and outer cutoff 2.5 A.
    radial cutoff = 6 A.
    angular cutoff = 4 A.
    n_max_radial = 6.
    n_max_angular = 6.
    basis_size_radial = 8.
    basis_size_angular = 8.
    l_max_3body = 6.
    l_max_4body = 2.
    l_max_5body = 1.
    ANN = 56-60-1.
    number of neural network parameters = 10441.
    number of descriptor parameters = 1134.
    total number of parameters = 11575.
Changing box ...
  triclinic box = (0.043463702 0.037770774 0.14287396) to (8.7363253 7.5657492 30.09998) with tilt (-4.3462886 0 0)
Neighbor list info ...
  update every 1 steps, delay 0 steps, check yes
  max neighbors/atom: 2000, page size: 100000
  master list distance cutoff = 7
  ghost atom cutoff = 7
  1 neighbor lists, perpetual/occasional/extra = 1 0 0
  (1) pair nep, perpetual
      attributes: full, newton on
      pair build: full/nsq
      stencil: none
      bin: none
Setting up cg style minimization ...
  Unit style    : metal
  Current step  : 100
Per MPI rank memory allocation (min/avg/max) = 4.085 | 4.085 | 4.085 Mbytes
   Step          Temp          PotEng         Press           Pxx            Pyy            Pzz            Pxy            Pxz            Pyz             Lx             Ly             Lz           Volume    
       100   0             -238.73763     -2366.0041     -2627.3784     -2642.4528     -1828.1811     -10.690595      18.552002      43.509895      8.6928616      7.5279785      29.957106      1960.3833    
       101   0             -238.84183     -2725.689      -2965.5934     -2961.803      -2249.6708     -4.9724016      22.212878      44.762564      8.6928616      7.5279785      29.957106      1960.3833    
       102   0             -238.92767     -2981.7911     -3208.9049     -3195.5737     -2540.8948     -0.90580496     25.789098      44.61486       8.6928616      7.5279785      29.957106      1960.3833    
       103   0             -238.99804     -3139.7189     -3365.2531     -3349.732      -2704.1718      1.8705014      28.917768      43.470887      8.6928616      7.5279785      29.957106      1960.3833    
       104   0             -239.05539     -3201.7916     -3442.1352     -3429.6778     -2733.5617      3.5926573      31.310678      41.733592      8.6928616      7.5279785      29.957106      1960.3833    
       105   0             -239.10183     -3173.3438     -3447.3785     -3440.9628     -2631.6901      4.3536256      32.799372      39.802034      8.6928616      7.5279785      29.957106      1960.3833    
       106   0             -239.13919     -3061.2288     -3389.4865     -3389.643      -2404.5568      4.0820471      33.38438       38.032975      8.6928616      7.5279785      29.957106      1960.3833    
       107   0             -239.1691      -2876.6773     -3278.0885     -3282.8894     -2069.0541      2.5420929      33.276312      36.671604      8.6928616      7.5279785      29.957106      1960.3833    
       108   0             -239.19301     -2631.3721     -3123.2101     -3128.6371     -1642.2691     -0.6076679      32.874116      35.775268      8.6928616      7.5279785      29.957106      1960.3833    
       109   0             -239.21184     -2343.4657     -2937.2921     -2938.1802     -1154.9247     -5.5637269      32.604297      35.182593      8.6928616      7.5279785      29.957106      1960.3833    
       110   0             -239.22434     -2077.4226     -2763.4877     -2756.6032     -712.17697     -11.008273      32.527139      34.679932      8.6928616      7.5279785      29.957106      1960.3833    
       111   0             -239.23312     -1827.7988     -2599.2494     -2583.0157     -301.13136     -16.56012       32.219983      34.36416       8.6928616      7.5279785      29.957106      1960.3833    
       112   0             -239.23921     -1590.3536     -2442.3822     -2415.7433      87.064613     -21.791894      30.886232      34.374967      8.6928616      7.5279785      29.957106      1960.3833    
       113   0             -239.24313     -1366.5404     -2294.7489     -2257.0508      452.17847     -25.989188      27.150298      34.550043      8.6928616      7.5279785      29.957106      1960.3833    
       114   0             -239.24527     -1169.2661     -2166.5258     -2118.2021      776.92952     -27.489858      18.196754      33.953554      8.6928616      7.5279785      29.957106      1960.3833    
       115   0             -239.24644     -1138.4444     -2154.8212     -2104.0935      843.5814      -22.464493      4.4396824      30.55456       8.6928616      7.5279785      29.957106      1960.3833    
       116   0             -239.24703     -1209.7086     -2210.5888     -2156.3959      737.85895     -24.80474       14.253672      36.289635      8.6928616      7.5279785      29.957106      1960.3833    
       117   0             -239.24717     -1268.8222     -2260.7191     -2211.917       666.1696      -20.24347       3.4365961      28.446632      8.6928616      7.5279785      29.957106      1960.3833    
       118   0             -239.24743     -1182.1239     -2201.1852     -2152.5132      807.32673     -15.534059     -6.7728363      23.460382      8.6928616      7.5279785      29.957106      1960.3833    
       119   0             -239.24758     -1199.6631     -2222.3551     -2160.3027      783.66839     -22.475779      11.698929      38.509236      8.6928616      7.5279785      29.957106      1960.3833    
       120   0             -239.24761     -1248.063      -2258.4513     -2199.2132      713.47547     -21.655124      11.893311      37.067106      8.6928616      7.5279785      29.957106      1960.3833    
       121   0             -239.24764     -1249.3547     -2256.1871     -2199.5369      707.66004     -19.467516      8.9166495      35.135163      8.6928616      7.5279785      29.957106      1960.3833    
       122   0             -239.24765     -1263.9233     -2268.093      -2210.8537      687.17685     -19.22321       9.2988933      35.991459      8.6928616      7.5279785      29.957106      1960.3833    
       123   0             -239.24765     -1263.1571     -2267.1577     -2211.0409      688.72727     -19.73848       11.314101      35.532516      8.6928616      7.5279785      29.957106      1960.3833    
       124   0             -239.24766     -1255.4386     -2261.0226     -2205.041       699.74791     -19.748191      11.931982      35.540672      8.6928616      7.5279785      29.957106      1960.3833    
       125   0             -239.24767     -1253.1872     -2259.9804     -2203.2029      703.62173     -19.172892      10.989935      36.127005      8.6928616      7.5279785      29.957106      1960.3833    
       126   0             -239.24767     -1250.8332     -2258.484      -2201.272       707.25658     -19.259178      11.359983      36.809885      8.6928616      7.5279785      29.957106      1960.3833    
       127   0             -239.24767     -1254.2338     -2261.0399     -2204.0547      702.39308     -19.175543      11.343683      36.736109      8.6928616      7.5279785      29.957106      1960.3833    
       128   0             -239.24767     -1255.5831     -2261.4628     -2205.2674      699.98107     -18.657641      10.506302      36.021301      8.6928616      7.5279785      29.957106      1960.3833    
       129   0             -239.24767     -1255.5739     -2261.3934     -2205.2669      699.93849     -18.407539      9.8912979      35.977533      8.6928616      7.5279785      29.957106      1960.3833    
       130   0             -239.24767     -1256.3619     -2262.1898     -2205.8906      698.99459     -18.556036      10.078112      36.179276      8.6928616      7.5279785      29.957106      1960.3833    
       131   0             -239.24767     -1254.9073     -2261.2065     -2204.6795      701.16406     -18.938582      10.820332      36.374836      8.6928616      7.5279785      29.957106      1960.3833    
       132   0             -239.24767     -1255.1419     -2261.4328     -2204.8657      700.87271     -19.010526      10.950131      36.407726      8.6928616      7.5279785      29.957106      1960.3833    
       133   0             -239.24767     -1255.0238     -2261.329      -2204.7732      701.03077     -18.953062      10.815118      36.410225      8.6928616      7.5279785      29.957106      1960.3833    
       134   0             -239.24767     -1254.9931     -2261.2991     -2204.7443      701.06413     -18.923848      10.756105      36.422554      8.6928616      7.5279785      29.957106      1960.3833    
       135   0             -239.24767     -1255.1713     -2261.4193     -2204.8961      700.8016      -18.94436       10.808667      36.404976      8.6928616      7.5279785      29.957106      1960.3833    
       136   0             -239.24767     -1255.1176     -2261.3473     -2204.8614      700.85599     -18.939949      10.803841      36.38062       8.6928616      7.5279785      29.957106      1960.3833    
       137   0             -239.24767     -1255.2608     -2261.4643     -2204.9699      700.65177     -18.926179      10.768109      36.39392       8.6928616      7.5279785      29.957106      1960.3833    
       138   0             -239.24767     -1255.2075     -2261.4291     -2204.9202      700.72696     -18.936781      10.786967      36.409132      8.6928616      7.5279785      29.957106      1960.3833    
       139   0             -239.24767     -1255.2113     -2261.4342     -2204.9233      700.72359     -18.952023      10.821256      36.41142       8.6928616      7.5279785      29.957106      1960.3833    
       140   0             -239.24767     -1255.2204     -2261.4452     -2204.9326      700.71654     -18.953226      10.825503      36.411394      8.6928616      7.5279785      29.957106      1960.3833    
       141   0             -239.24767     -1255.1673     -2261.407      -2204.8881      700.79325     -18.94908       10.817806      36.415251      8.6928616      7.5279785      29.957106      1960.3833    
       142   0             -239.24767     -1255.2036     -2261.4371     -2204.9177      700.74407     -18.946883      10.815424      36.415256      8.6928616      7.5279785      29.957106      1960.3833    
       143   0             -239.24767     -1255.1987     -2261.4294     -2204.9169      700.75017     -18.947238      10.819218      36.409714      8.6928616      7.5279785      29.957106      1960.3833    
       144   0             -239.24767     -1255.2074     -2261.4349     -2204.9245      700.73731     -18.946081      10.818439      36.408033      8.6928616      7.5279785      29.957106      1960.3833    
       145   0             -239.24767     -1255.214      -2261.4408     -2204.9296      700.72826     -18.944589      10.814975      36.408783      8.6928616      7.5279785      29.957106      1960.3833    
       146   0             -239.24767     -1255.2092     -2261.4373     -2204.9257      700.73545     -18.943933      10.813161      36.4092        8.6928616      7.5279785      29.957106      1960.3833    
       147   0             -239.24767     -1255.2107     -2261.439      -2204.9271      700.7341      -18.945717      10.817359      36.409362      8.6928616      7.5279785      29.957106      1960.3833    
       148   0             -239.24767     -1255.2075     -2261.4368     -2204.9243      700.73875     -18.946093      10.818423      36.409888      8.6928616      7.5279785      29.957106      1960.3833    
       149   0             -239.24767     -1255.2084     -2261.4378     -2204.925       700.73753     -18.945558      10.817538      36.410401      8.6928616      7.5279785      29.957106      1960.3833    
       150   0             -239.24767     -1255.2109     -2261.4394     -2204.9273      700.73415     -18.945362      10.817287      36.409772      8.6928616      7.5279785      29.957106      1960.3833    
       151   0             -239.24767     -1255.2096     -2261.4382     -2204.9264      700.73585     -18.945235      10.817167      36.409566      8.6928616      7.5279785      29.957106      1960.3833    
       152   0             -239.24767     -1255.2113     -2261.4396     -2204.9277      700.7335      -18.945038      10.816984      36.409758      8.6928616      7.5279785      29.957106      1960.3833    
       153   0             -239.24767     -1255.2113     -2261.4397     -2204.9278      700.73347     -18.945002      10.816929      36.409892      8.6928616      7.5279785      29.957106      1960.3833    
       154   0             -239.24767     -1255.2107     -2261.4392     -2204.9274      700.73439     -18.945058      10.81704       36.409738      8.6928616      7.5279785      29.957106      1960.3833    
       155   0             -239.24767     -1255.2112     -2261.4397     -2204.9278      700.73369     -18.945139      10.817237      36.409796      8.6928616      7.5279785      29.957106      1960.3833    
       156   0             -239.24767     -1255.2106     -2261.4392     -2204.9272      700.73457     -18.945201      10.817391      36.409986      8.6928616      7.5279785      29.957106      1960.3833    
       157   0             -239.24767     -1255.2108     -2261.4394     -2204.9272      700.73436     -18.945189      10.817357      36.410057      8.6928616      7.5279785      29.957106      1960.3833    
       158   0             -239.24767     -1255.2109     -2261.4394     -2204.9273      700.7342      -18.945172      10.817317      36.410017      8.6928616      7.5279785      29.957106      1960.3833    
       159   0             -239.24767     -1255.2109     -2261.4394     -2204.9274      700.73412     -18.945154      10.817274      36.409933      8.6928616      7.5279785      29.957106      1960.3833    
       160   0             -239.24767     -1255.211      -2261.4395     -2204.9275      700.73399     -18.945164      10.817296      36.409947      8.6928616      7.5279785      29.957106      1960.3833    
       161   0             -239.24767     -1255.2108     -2261.4393     -2204.9273      700.73424     -18.945168      10.817306      36.409974      8.6928616      7.5279785      29.957106      1960.3833    
       162   0             -239.24767     -1255.2108     -2261.4393     -2204.9273      700.73423     -18.945165      10.817298      36.409969      8.6928616      7.5279785      29.957106      1960.3833    
       163   0             -239.24767     -1255.2108     -2261.4393     -2204.9273      700.73428     -18.945171      10.817309      36.409964      8.6928616      7.5279785      29.957106      1960.3833    
       164   0             -239.24767     -1255.2108     -2261.4393     -2204.9273      700.73427     -18.945179      10.817325      36.409979      8.6928616      7.5279785      29.957106      1960.3833    
       165   0             -239.24767     -1255.2108     -2261.4393     -2204.9273      700.73419     -18.94518       10.817326      36.409978      8.6928616      7.5279785      29.957106      1960.3833    
       166   0             -239.24767     -1255.2108     -2261.4393     -2204.9273      700.73421     -18.945176      10.817318      36.409966      8.6928616      7.5279785      29.957106      1960.3833    
       167   0             -239.24767     -1255.2108     -2261.4393     -2204.9273      700.73421     -18.945175      10.817314      36.409964      8.6928616      7.5279785      29.957106      1960.3833    
       168   0             -239.24767     -1255.2108     -2261.4393     -2204.9273      700.73424     -18.945175      10.817314      36.409967      8.6928616      7.5279785      29.957106      1960.3833    
       169   0             -239.24767     -1255.2108     -2261.4393     -2204.9273      700.73425     -18.945174      10.817313      36.409966      8.6928616      7.5279785      29.957106      1960.3833    
       170   0             -239.24767     -1255.2108     -2261.4393     -2204.9273      700.73423     -18.945174      10.817314      36.409964      8.6928616      7.5279785      29.957106      1960.3833    
       171   0             -239.24767     -1255.2108     -2261.4393     -2204.9273      700.73423     -18.945175      10.817316      36.409965      8.6928616      7.5279785      29.957106      1960.3833    
       172   0             -239.24767     -1255.2108     -2261.4393     -2204.9273      700.73422     -18.945176      10.817317      36.409966      8.6928616      7.5279785      29.957106      1960.3833    
       173   0             -239.24767     -1255.2108     -2261.4393     -2204.9273      700.73423     -18.945177      10.817318      36.409967      8.6928616      7.5279785      29.957106      1960.3833    
       174   0             -239.24767     -1255.2108     -2261.4393     -2204.9273      700.73423     -18.945176      10.817317      36.409966      8.6928616      7.5279785      29.957106      1960.3833    
       175   0             -239.24767     -1255.2108     -2261.4393     -2204.9273      700.73423     -18.945176      10.817317      36.409966      8.6928616      7.5279785      29.957106      1960.3833    
       176   0             -239.24767     -1255.2108     -2261.4393     -2204.9273      700.73423     -18.945176      10.817317      36.409966      8.6928616      7.5279785      29.957106      1960.3833    
       177   0             -239.24767     -1255.2108     -2261.4393     -2204.9273      700.73423     -18.945176      10.817317      36.409966      8.6928616      7.5279785      29.957106      1960.3833    
       178   0             -239.24767     -1255.2108     -2261.4393     -2204.9273      700.73423     -18.945176      10.817317      36.409966      8.6928616      7.5279785      29.957106      1960.3833    
       179   0             -239.24767     -1255.2108     -2261.4393     -2204.9273      700.73423     -18.945176      10.817317      36.409966      8.6928616      7.5279785      29.957106      1960.3833    
       180   0             -239.24767     -1255.2108     -2261.4393     -2204.9273      700.73423     -18.945176      10.817317      36.409966      8.6928616      7.5279785      29.957106      1960.3833    
       181   0             -239.24767     -1255.2108     -2261.4393     -2204.9273      700.73423     -18.945176      10.817317      36.409966      8.6928616      7.5279785      29.957106      1960.3833    
       182   0             -239.24767     -1255.2108     -2261.4393     -2204.9273      700.73423     -18.945176      10.817317      36.409966      8.6928616      7.5279785      29.957106      1960.3833    
       183   0             -239.24767     -1255.2108     -2261.4393     -2204.9273      700.73423     -18.945176      10.817317      36.409966      8.6928616      7.5279785      29.957106      1960.3833    
       184   0             -239.24767     -1255.2108     -2261.4393     -2204.9273      700.73423     -18.945176      10.817317      36.409966      8.6928616      7.5279785      29.957106      1960.3833    
       185   0             -239.24767     -1255.2108     -2261.4393     -2204.9273      700.73423     -18.945176      10.817317      36.409966      8.6928616      7.5279785      29.957106      1960.3833    
       186   0             -239.24767     -1255.2108     -2261.4393     -2204.9273      700.73423     -18.945176      10.817317      36.409966      8.6928616      7.5279785      29.957106      1960.3833    
       187   0             -239.24767     -1255.2108     -2261.4393     -2204.9273      700.73423     -18.945176      10.817317      36.409966      8.6928616      7.5279785      29.957106      1960.3833    
       188   0             -239.24767     -1255.2108     -2261.4393     -2204.9273      700.73423     -18.945176      10.817317      36.409966      8.6928616      7.5279785      29.957106      1960.3833    
       189   0             -239.24767     -1255.2108     -2261.4393     -2204.9273      700.73423     -18.945176      10.817317      36.409966      8.6928616      7.5279785      29.957106      1960.3833    
       190   0             -239.24767     -1255.2108     -2261.4393     -2204.9273      700.73423     -18.945176      10.817317      36.409966      8.6928616      7.5279785      29.957106      1960.3833    
       191   0             -239.24767     -1255.2108     -2261.4393     -2204.9273      700.73423     -18.945176      10.817317      36.409966      8.6928616      7.5279785      29.957106      1960.3833    
       192   0             -239.24767     -1255.2108     -2261.4393     -2204.9273      700.73423     -18.945176      10.817317      36.409966      8.6928616      7.5279785      29.957106      1960.3833    
       193   0             -239.24767     -1255.2108     -2261.4393     -2204.9273      700.73423     -18.945176      10.817317      36.409966      8.6928616      7.5279785      29.957106      1960.3833    
       194   0             -239.24767     -1255.2108     -2261.4393     -2204.9273      700.73423     -18.945176      10.817317      36.409966      8.6928616      7.5279785      29.957106      1960.3833    
       195   0             -239.24767     -1255.2108     -2261.4393     -2204.9273      700.73423     -18.945176      10.817317      36.409966      8.6928616      7.5279785      29.957106      1960.3833    
       196   0             -239.24767     -1255.2108     -2261.4393     -2204.9273      700.73423     -18.945176      10.817317      36.409966      8.6928616      7.5279785      29.957106      1960.3833    
       197   0             -239.24767     -1255.2108     -2261.4393     -2204.9273      700.73423     -18.945176      10.817317      36.409966      8.6928616      7.5279785      29.957106      1960.3833    
       198   0             -239.24767     -1255.2108     -2261.4393     -2204.9273      700.73423     -18.945176      10.817317      36.409966      8.6928616      7.5279785      29.957106      1960.3833    
       199   0             -239.24767     -1255.2108     -2261.4393     -2204.9273      700.73423     -18.945176      10.817317      36.409966      8.6928616      7.5279785      29.957106      1960.3833    
       200   0             -239.24767     -1255.2108     -2261.4393     -2204.9273      700.73423     -18.945176      10.817317      36.409966      8.6928616      7.5279785      29.957106      1960.3833    
Loop time of 0.0364285 on 48 procs for 100 steps with 60 atoms

99.6% CPU use with 48 MPI tasks x no OpenMP threads

Minimization stats:
  Stopping criterion = max iterations
  Energy initial, next-to-last, final = 
     -238.737630601145  -239.247668142552  -239.247668142552
  Force two-norm initial, final = 2.1435681 4.9621642e-13
  Force max component initial, final = 0.40815885 1.2190249e-13
  Final line search alpha, max atom move = 1 1.2190249e-13
  Iterations, force evaluations = 100 184

MPI task timing breakdown:
Section |  min time  |  avg time  |  max time  |%varavg| %total
---------------------------------------------------------------
Pair    | 1.8573e-05 | 0.0091874  | 0.021743   |   6.0 | 25.22
Neigh   | 0          | 0          | 0          |   0.0 |  0.00
Comm    | 0.0060743  | 0.016609   | 0.027666   |   4.6 | 45.59
Output  | 0.0039831  | 0.0040818  | 0.0045639  |   0.1 | 11.20
Modify  | 0          | 0          | 0          |   0.0 |  0.00
Other   |            | 0.006551   |            |       | 17.98

Nlocal:           1.25 ave           3 max           0 min
Histogram: 9 0 0 20 0 0 17 0 0 2
Nghost:         180.75 ave         183 max         177 min
Histogram: 2 5 0 4 0 5 12 0 16 4
Neighs:              0 ave           0 max           0 min
Histogram: 48 0 0 0 0 0 0 0 0 0
FullNghs:           52 ave         126 max           0 min
Histogram: 9 0 0 20 0 0 17 0 0 2

Total # of neighbors = 2496
Ave neighs/atom = 41.6
Neighbor list builds = 0
Dangerous builds = 0
Reading restart file ...
  restart file = 24 Mar 2022, LAMMPS = 24 Mar 2022
  restoring atom style atomic from restart
  triclinic box = (0.043463702 0.037770774 0.14287396) to (8.7363253 7.5657492 30.09998) with tilt (-4.3462811 0 0)
  3 by 2 by 8 MPI processor grid
  pair style nep stores no restart info
  60 atoms
  read_restart CPU = 0.058 seconds
Use the NEP4 potential with 3 atom types.
    type 0( Bi with Z = 83).
    type 1( Sb with Z = 51).
    type 2( Te with Z = 52).
    has universal ZBL with inner cutoff 1.25 A and outer cutoff 2.5 A.
    radial cutoff = 6 A.
    angular cutoff = 4 A.
    n_max_radial = 6.
    n_max_angular = 6.
    basis_size_radial = 8.
    basis_size_angular = 8.
    l_max_3body = 6.
    l_max_4body = 2.
    l_max_5body = 1.
    ANN = 56-60-1.
    number of neural network parameters = 10441.
    number of descriptor parameters = 1134.
    total number of parameters = 11575.
Changing box ...
  triclinic box = (0.043463702 0.037770774 0.14287396) to (8.7363253 7.5657492 30.09998) with tilt (-4.3462735 0 0)
Neighbor list info ...
  update every 1 steps, delay 0 steps, check yes
  max neighbors/atom: 2000, page size: 100000
  master list distance cutoff = 7
  ghost atom cutoff = 7
  1 neighbor lists, perpetual/occasional/extra = 1 0 0
  (1) pair nep, perpetual
      attributes: full, newton on
      pair build: full/nsq
      stencil: none
      bin: none
Setting up cg style minimization ...
  Unit style    : metal
  Current step  : 100
Per MPI rank memory allocation (min/avg/max) = 4.085 | 4.085 | 4.085 Mbytes
   Step          Temp          PotEng         Press           Pxx            Pyy            Pzz            Pxy            Pxz            Pyz             Lx             Ly             Lz           Volume    
       100   0             -238.73763     -2366.0045     -2627.3789     -2642.4533     -1828.1814     -11.374458      19.14945       43.509866      8.6928616      7.5279785      29.957106      1960.3833    
       101   0             -238.84183     -2725.6895     -2965.5939     -2961.8036     -2249.671      -5.6472431      22.789616      44.76257       8.6928616      7.5279785      29.957106      1960.3833    
       102   0             -238.92767     -2981.7916     -3208.9054     -3195.5743     -2540.8951     -1.5723695      26.346557      44.614877      8.6928616      7.5279785      29.957106      1960.3833    
       103   0             -238.99804     -3139.7195     -3365.2536     -3349.7327     -2704.1721      1.2117103      29.457023      43.470896      8.6928616      7.5279785      29.957106      1960.3833    
       104   0             -239.05539     -3201.7921     -3442.1358     -3429.6785     -2733.5621      2.9413329      31.832515      41.733573      8.6928616      7.5279785      29.957106      1960.3833    
       105   0             -239.10183     -3173.3444     -3447.379      -3440.9635     -2631.6905      3.7096113      33.304361      39.801961      8.6928616      7.5279785      29.957106      1960.3833    
       106   0             -239.13919     -3061.2293     -3389.4869     -3389.6438     -2404.5573      3.4452838      33.872964      38.032817      8.6928616      7.5279785      29.957106      1960.3833    
       107   0             -239.1691      -2876.6778     -3278.0888     -3282.8901     -2069.0545      1.9125605      33.748907      36.671321      8.6928616      7.5279785      29.957106      1960.3833    
       108   0             -239.19301     -2631.3725     -3123.2102     -3128.6378     -1642.2696     -1.2299989      33.331193      35.77481       8.6928616      7.5279785      29.957106      1960.3833    
       109   0             -239.21184     -2343.4656     -2937.2917     -2938.1805     -1154.9245     -6.179022       33.046625      35.181902      8.6928616      7.5279785      29.957106      1960.3833    
       110   0             -239.22434     -2077.4223     -2763.487      -2756.6034     -712.17651     -11.617786      32.957723      34.678991      8.6928616      7.5279785      29.957106      1960.3833    
       111   0             -239.23312     -1827.7983     -2599.2484     -2583.0158     -301.13072     -17.164324      32.640076      34.362942      8.6928616      7.5279785      29.957106      1960.3833    
       112   0             -239.23921     -1590.3529     -2442.3809     -2415.7434      87.065427     -22.390774      31.29605       34.373434      8.6928616      7.5279785      29.957106      1960.3833    
       113   0             -239.24313     -1366.5395     -2294.7473     -2257.0508      452.17952     -26.58233       27.549223      34.548132      8.6928616      7.5279785      29.957106      1960.3833    
       114   0             -239.24527     -1169.265      -2166.5236     -2118.2021      776.93091     -28.076399      18.583288      33.951146      8.6928616      7.5279785      29.957106      1960.3833    
       115   0             -239.24644     -1138.4424     -2154.8182     -2104.0931      843.58421     -23.046348      4.8175551      30.551657      8.6928616      7.5279785      29.957106      1960.3833    
       116   0             -239.24703     -1209.7077     -2210.5869     -2156.3964      737.86011     -25.389041      14.636775      36.287051      8.6928616      7.5279785      29.957106      1960.3833    
       117   0             -239.24717     -1268.8205     -2260.7167     -2211.9173      666.17247     -20.826318      3.8166094      28.44349       8.6928616      7.5279785      29.957106      1960.3833    
       118   0             -239.24743     -1182.1183     -2201.1796     -2152.5099      807.33446     -16.115251     -6.3956378      23.457712      8.6928616      7.5279785      29.957106      1960.3833    
       119   0             -239.24758     -1199.6647     -2222.3556     -2160.3052      783.66677     -23.05752       12.078181      38.506937      8.6928616      7.5279785      29.957106      1960.3833    
       120   0             -239.24761     -1248.0622     -2258.4495     -2199.2139      713.47682     -22.237045      12.272962      37.064402      8.6928616      7.5279785      29.957106      1960.3833    
       121   0             -239.24764     -1249.3533     -2256.1853     -2199.537       707.66239     -20.050079      9.2973348      35.132984      8.6928616      7.5279785      29.957106      1960.3833    
       122   0             -239.24765     -1263.9229     -2268.0918     -2210.8547      687.17792     -19.805889      9.6798408      35.989067      8.6928616      7.5279785      29.957106      1960.3833    
       123   0             -239.24765     -1263.155      -2267.1551     -2211.0406      688.73057     -20.321419      11.695659      35.530034      8.6928616      7.5279785      29.957106      1960.3833    
       124   0             -239.24766     -1255.4386     -2261.0218     -2205.0422      699.74812     -20.331198      12.313641      35.538457      8.6928616      7.5279785      29.957106      1960.3833    
       125   0             -239.24767     -1253.1859     -2259.9786     -2203.203       703.62378     -19.755836      11.371414      36.124833      8.6928616      7.5279785      29.957106      1960.3833    
       126   0             -239.24767     -1250.8324     -2258.4826     -2201.2726      707.25786     -19.841997      11.741236      36.807699      8.6928616      7.5279785      29.957106      1960.3833    
       127   0             -239.24767     -1254.2336     -2261.0388     -2204.0557      702.39358     -19.758218      11.724677      36.733785      8.6928616      7.5279785      29.957106      1960.3833    
       128   0             -239.24767     -1255.5816     -2261.4607     -2205.2675      699.98339     -19.240218      10.887072      36.019042      8.6928616      7.5279785      29.957106      1960.3833    
       129   0             -239.24767     -1255.5731     -2261.3918     -2205.2675      699.93992     -18.990031      10.271869      35.97527       8.6928616      7.5279785      29.957106      1960.3833    
       130   0             -239.24767     -1256.3607     -2262.1879     -2205.8908      698.99662     -19.138603      10.458833      36.177012      8.6928616      7.5279785      29.957106      1960.3833    
       131   0             -239.24767     -1254.9062     -2261.2047     -2204.6798      701.16592     -19.52126       11.201291      36.372581      8.6928616      7.5279785      29.957106      1960.3833    
       132   0             -239.24767     -1255.141      -2261.4311     -2204.8661      700.87435     -19.593196      11.33107       36.405473      8.6928616      7.5279785      29.957106      1960.3833    
       133   0             -239.24767     -1255.0227     -2261.3272     -2204.7735      701.03259     -19.535717      11.196026      36.407984      8.6928616      7.5279785      29.957106      1960.3833    
       134   0             -239.24767     -1254.9921     -2261.2974     -2204.7447      701.06573     -19.506507      11.137021      36.420321      8.6928616      7.5279785      29.957106      1960.3833    
       135   0             -239.24767     -1255.1702     -2261.4175     -2204.8964      700.80337     -19.527019      11.189584      36.402737      8.6928616      7.5279785      29.957106      1960.3833    
       136   0             -239.24767     -1255.1166     -2261.3456     -2204.8618      700.85768     -19.5226        11.184739      36.378384      8.6928616      7.5279785      29.957106      1960.3833    
       137   0             -239.24767     -1255.2598     -2261.4626     -2204.9702      700.65346     -19.508827      11.148999      36.391687      8.6928616      7.5279785      29.957106      1960.3833    
       138   0             -239.24767     -1255.2064     -2261.4273     -2204.9206      700.72871     -19.519436      11.167874      36.406892      8.6928616      7.5279785      29.957106      1960.3833    
       139   0             -239.24767     -1255.2103     -2261.4325     -2204.9237      700.72529     -19.534681      11.202168      36.409179      8.6928616      7.5279785      29.957106      1960.3833    
       140   0             -239.24767     -1255.2194     -2261.4434     -2204.933       700.71828     -19.535885      11.206418      36.409154      8.6928616      7.5279785      29.957106      1960.3833    
       141   0             -239.24767     -1255.1662     -2261.4052     -2204.8885      700.79496     -19.531739      11.198719      36.413014      8.6928616      7.5279785      29.957106      1960.3833    
       142   0             -239.24767     -1255.2026     -2261.4354     -2204.9181      700.74576     -19.529541      11.196336      36.413016      8.6928616      7.5279785      29.957106      1960.3833    
       143   0             -239.24767     -1255.1977     -2261.4277     -2204.9172      700.75189     -19.529896      11.20013       36.407475      8.6928616      7.5279785      29.957106      1960.3833    
       144   0             -239.24767     -1255.2063     -2261.4332     -2204.9248      700.73901     -19.528739      11.19935       36.405795      8.6928616      7.5279785      29.957106      1960.3833    
       145   0             -239.24767     -1255.213      -2261.4391     -2204.9299      700.72998     -19.527246      11.195884      36.406545      8.6928616      7.5279785      29.957106      1960.3833    
       146   0             -239.24767     -1255.2082     -2261.4356     -2204.9261      700.73716     -19.52659       11.19407       36.406961      8.6928616      7.5279785      29.957106      1960.3833    
       147   0             -239.24767     -1255.2096     -2261.4372     -2204.9275      700.73581     -19.528375      11.19827       36.407124      8.6928616      7.5279785      29.957106      1960.3833    
       148   0             -239.24767     -1255.2064     -2261.435      -2204.9247      700.74046     -19.528751      11.199334      36.407649      8.6928616      7.5279785      29.957106      1960.3833    
       149   0             -239.24767     -1255.2074     -2261.436      -2204.9253      700.73924     -19.528216      11.198449      36.408163      8.6928616      7.5279785      29.957106      1960.3833    
       150   0             -239.24767     -1255.2098     -2261.4377     -2204.9277      700.73587     -19.528019      11.198198      36.407534      8.6928616      7.5279785      29.957106      1960.3833    
       151   0             -239.24767     -1255.2086     -2261.4365     -2204.9268      700.73757     -19.527892      11.198078      36.407328      8.6928616      7.5279785      29.957106      1960.3833    
       152   0             -239.24767     -1255.2102     -2261.4379     -2204.9281      700.73521     -19.527695      11.197894      36.407519      8.6928616      7.5279785      29.957106      1960.3833    
       153   0             -239.24767     -1255.2103     -2261.438      -2204.9281      700.73518     -19.52766       11.197839      36.407653      8.6928616      7.5279785      29.957106      1960.3833    
       154   0             -239.24767     -1255.2097     -2261.4375     -2204.9277      700.7361      -19.527716      11.197951      36.4075        8.6928616      7.5279785      29.957106      1960.3833    
       155   0             -239.24767     -1255.2102     -2261.4379     -2204.9281      700.7354      -19.527797      11.198148      36.407557      8.6928616      7.5279785      29.957106      1960.3833    
       156   0             -239.24767     -1255.2096     -2261.4375     -2204.9275      700.73628     -19.527859      11.198301      36.407747      8.6928616      7.5279785      29.957106      1960.3833    
       157   0             -239.24767     -1255.2097     -2261.4377     -2204.9276      700.73607     -19.527846      11.198268      36.407819      8.6928616      7.5279785      29.957106      1960.3833    
       158   0             -239.24767     -1255.2098     -2261.4377     -2204.9277      700.73591     -19.527829      11.198228      36.407779      8.6928616      7.5279785      29.957106      1960.3833    
       159   0             -239.24767     -1255.2099     -2261.4377     -2204.9278      700.73583     -19.527812      11.198185      36.407694      8.6928616      7.5279785      29.957106      1960.3833    
       160   0             -239.24767     -1255.21       -2261.4377     -2204.9278      700.7357      -19.527822      11.198206      36.407709      8.6928616      7.5279785      29.957106      1960.3833    
       161   0             -239.24767     -1255.2098     -2261.4376     -2204.9276      700.73595     -19.527825      11.198217      36.407736      8.6928616      7.5279785      29.957106      1960.3833    
       162   0             -239.24767     -1255.2098     -2261.4376     -2204.9277      700.73594     -19.527823      11.198209      36.40773       8.6928616      7.5279785      29.957106      1960.3833    
       163   0             -239.24767     -1255.2097     -2261.4376     -2204.9276      700.73599     -19.527829      11.19822       36.407726      8.6928616      7.5279785      29.957106      1960.3833    
       164   0             -239.24767     -1255.2097     -2261.4376     -2204.9276      700.73599     -19.527837      11.198235      36.407741      8.6928616      7.5279785      29.957106      1960.3833    
       165   0             -239.24767     -1255.2098     -2261.4376     -2204.9277      700.73591     -19.527838      11.198237      36.407739      8.6928616      7.5279785      29.957106      1960.3833    
       166   0             -239.24767     -1255.2098     -2261.4376     -2204.9276      700.73592     -19.527834      11.198228      36.407727      8.6928616      7.5279785      29.957106      1960.3833    
       167   0             -239.24767     -1255.2098     -2261.4376     -2204.9276      700.73593     -19.527832      11.198225      36.407726      8.6928616      7.5279785      29.957106      1960.3833    
       168   0             -239.24767     -1255.2098     -2261.4376     -2204.9276      700.73595     -19.527832      11.198225      36.407728      8.6928616      7.5279785      29.957106      1960.3833    
       169   0             -239.24767     -1255.2097     -2261.4376     -2204.9276      700.73596     -19.527832      11.198224      36.407728      8.6928616      7.5279785      29.957106      1960.3833    
       170   0             -239.24767     -1255.2098     -2261.4376     -2204.9276      700.73594     -19.527832      11.198224      36.407726      8.6928616      7.5279785      29.957106      1960.3833    
       171   0             -239.24767     -1255.2098     -2261.4376     -2204.9276      700.73594     -19.527833      11.198226      36.407727      8.6928616      7.5279785      29.957106      1960.3833    
       172   0             -239.24767     -1255.2098     -2261.4376     -2204.9276      700.73594     -19.527834      11.198228      36.407728      8.6928616      7.5279785      29.957106      1960.3833    
       173   0             -239.24767     -1255.2098     -2261.4376     -2204.9276      700.73594     -19.527834      11.198229      36.407729      8.6928616      7.5279785      29.957106      1960.3833    
       174   0             -239.24767     -1255.2098     -2261.4376     -2204.9276      700.73594     -19.527834      11.198228      36.407728      8.6928616      7.5279785      29.957106      1960.3833    
       175   0             -239.24767     -1255.2098     -2261.4376     -2204.9276      700.73594     -19.527834      11.198228      36.407727      8.6928616      7.5279785      29.957106      1960.3833    
       176   0             -239.24767     -1255.2098     -2261.4376     -2204.9276      700.73594     -19.527834      11.198228      36.407728      8.6928616      7.5279785      29.957106      1960.3833    
       177   0             -239.24767     -1255.2098     -2261.4376     -2204.9276      700.73594     -19.527834      11.198228      36.407728      8.6928616      7.5279785      29.957106      1960.3833    
       178   0             -239.24767     -1255.2098     -2261.4376     -2204.9276      700.73594     -19.527834      11.198228      36.407728      8.6928616      7.5279785      29.957106      1960.3833    
       179   0             -239.24767     -1255.2098     -2261.4376     -2204.9276      700.73594     -19.527834      11.198228      36.407728      8.6928616      7.5279785      29.957106      1960.3833    
       180   0             -239.24767     -1255.2098     -2261.4376     -2204.9276      700.73594     -19.527834      11.198228      36.407728      8.6928616      7.5279785      29.957106      1960.3833    
       181   0             -239.24767     -1255.2098     -2261.4376     -2204.9276      700.73594     -19.527834      11.198228      36.407728      8.6928616      7.5279785      29.957106      1960.3833    
       182   0             -239.24767     -1255.2098     -2261.4376     -2204.9276      700.73594     -19.527834      11.198228      36.407728      8.6928616      7.5279785      29.957106      1960.3833    
       183   0             -239.24767     -1255.2098     -2261.4376     -2204.9276      700.73594     -19.527834      11.198228      36.407728      8.6928616      7.5279785      29.957106      1960.3833    
       184   0             -239.24767     -1255.2098     -2261.4376     -2204.9276      700.73594     -19.527834      11.198228      36.407728      8.6928616      7.5279785      29.957106      1960.3833    
       185   0             -239.24767     -1255.2098     -2261.4376     -2204.9276      700.73594     -19.527834      11.198228      36.407728      8.6928616      7.5279785      29.957106      1960.3833    
       186   0             -239.24767     -1255.2098     -2261.4376     -2204.9276      700.73594     -19.527834      11.198228      36.407728      8.6928616      7.5279785      29.957106      1960.3833    
       187   0             -239.24767     -1255.2098     -2261.4376     -2204.9276      700.73594     -19.527834      11.198228      36.407728      8.6928616      7.5279785      29.957106      1960.3833    
       188   0             -239.24767     -1255.2098     -2261.4376     -2204.9276      700.73594     -19.527834      11.198228      36.407728      8.6928616      7.5279785      29.957106      1960.3833    
       189   0             -239.24767     -1255.2098     -2261.4376     -2204.9276      700.73594     -19.527834      11.198228      36.407728      8.6928616      7.5279785      29.957106      1960.3833    
       190   0             -239.24767     -1255.2098     -2261.4376     -2204.9276      700.73594     -19.527834      11.198228      36.407728      8.6928616      7.5279785      29.957106      1960.3833    
       191   0             -239.24767     -1255.2098     -2261.4376     -2204.9276      700.73594     -19.527834      11.198228      36.407728      8.6928616      7.5279785      29.957106      1960.3833    
       192   0             -239.24767     -1255.2098     -2261.4376     -2204.9276      700.73594     -19.527834      11.198228      36.407728      8.6928616      7.5279785      29.957106      1960.3833    
       193   0             -239.24767     -1255.2098     -2261.4376     -2204.9276      700.73594     -19.527834      11.198228      36.407728      8.6928616      7.5279785      29.957106      1960.3833    
       194   0             -239.24767     -1255.2098     -2261.4376     -2204.9276      700.73594     -19.527834      11.198228      36.407728      8.6928616      7.5279785      29.957106      1960.3833    
       195   0             -239.24767     -1255.2098     -2261.4376     -2204.9276      700.73594     -19.527834      11.198228      36.407728      8.6928616      7.5279785      29.957106      1960.3833    
       196   0             -239.24767     -1255.2098     -2261.4376     -2204.9276      700.73594     -19.527834      11.198228      36.407728      8.6928616      7.5279785      29.957106      1960.3833    
       197   0             -239.24767     -1255.2098     -2261.4376     -2204.9276      700.73594     -19.527834      11.198228      36.407728      8.6928616      7.5279785      29.957106      1960.3833    
       198   0             -239.24767     -1255.2098     -2261.4376     -2204.9276      700.73594     -19.527834      11.198228      36.407728      8.6928616      7.5279785      29.957106      1960.3833    
       199   0             -239.24767     -1255.2098     -2261.4376     -2204.9276      700.73594     -19.527834      11.198228      36.407728      8.6928616      7.5279785      29.957106      1960.3833    
       200   0             -239.24767     -1255.2098     -2261.4376     -2204.9276      700.73594     -19.527834      11.198228      36.407728      8.6928616      7.5279785      29.957106      1960.3833    
Loop time of 0.0397366 on 48 procs for 100 steps with 60 atoms

99.6% CPU use with 48 MPI tasks x no OpenMP threads

Minimization stats:
  Stopping criterion = max iterations
  Energy initial, next-to-last, final = 
     -238.737630574147  -239.247668095477  -239.247668095477
  Force two-norm initial, final = 2.1435682 5.0061356e-13
  Force max component initial, final = 0.40815888 1.0533241e-13
  Final line search alpha, max atom move = 1 1.0533241e-13
  Iterations, force evaluations = 100 184

MPI task timing breakdown:
Section |  min time  |  avg time  |  max time  |%varavg| %total
---------------------------------------------------------------
Pair    | 2.045e-05  | 0.0094993  | 0.022862   |   6.2 | 23.91
Neigh   | 0          | 0          | 0          |   0.0 |  0.00
Comm    | 0.0067888  | 0.01775    | 0.029306   |   4.7 | 44.67
Output  | 0.0040138  | 0.0041074  | 0.0052404  |   0.3 | 10.34
Modify  | 0          | 0          | 0          |   0.0 |  0.00
Other   |            | 0.00838    |            |       | 21.09

Nlocal:           1.25 ave           3 max           0 min
Histogram: 9 0 0 20 0 0 17 0 0 2
Nghost:         180.75 ave         183 max         177 min
Histogram: 2 5 0 4 0 5 12 0 16 4
Neighs:              0 ave           0 max           0 min
Histogram: 48 0 0 0 0 0 0 0 0 0
FullNghs:           52 ave         126 max           0 min
Histogram: 9 0 0 20 0 0 17 0 0 2

Total # of neighbors = 2496
Ave neighs/atom = 41.6
Neighbor list builds = 0
Dangerous builds = 0
=========================================
Components of the Elastic Constant Tensor
=========================================
Elastic Constant C11all = 73.2852383835016 GPa
Elastic Constant C22all = 73.557293935999 GPa
Elastic Constant C33all = 36.2903200500004 GPa
Elastic Constant C12all = 14.8677799494999 GPa
Elastic Constant C13all = 22.5888387697523 GPa
Elastic Constant C23all = 22.700325015001 GPa
Elastic Constant C44all = 37.643461979785 GPa
Elastic Constant C55all = 37.27799606097 GPa
Elastic Constant C66all = 29.132881498455 GPa
Elastic Constant C14all = -19.1078259238313 GPa
Elastic Constant C15all = 0.248299056255718 GPa
Elastic Constant C16all = -0.0886969954776191 GPa
Elastic Constant C24all = 19.4188616130274 GPa
Elastic Constant C25all = 0.0171168572510964 GPa
Elastic Constant C26all = 0.017656875024926 GPa
Elastic Constant C34all = 0.218744304806023 GPa
Elastic Constant C35all = 0.180452789436572 GPa
Elastic Constant C36all = -0.0865848126315143 GPa
Elastic Constant C45all = -0.253899680702517 GPa
Elastic Constant C46all = 0.111371392082504 GPa
Elastic Constant C56all = -19.045535208135 GPa
=========================================
Average elastic properties (3D non-cubic)
Isotropic Voigt averages from full C_ij
=========================================
Bulk Modulus (Voigt)      = 33.7163044264453 GPa
Shear Modulus (Voigt)     = 29.0092618168585 GPa
Young Modulus (Voigt)   = 67.6312948988964 GPa
Poisson Ratio (Voigt)     = 0.165684520445001
Total wall time: 0:00:05
