&CONTROL
   calculation      = 'scf'
   verbosity        = 'high'
   restart_mode     = 'from_scratch'
   tstress          = .true.
   tprnfor          = .true.
   max_seconds      = 342000
   outdir           = './'
   etot_conv_thr    = 1e-10
   forc_conv_thr    = 1e-10
   disk_io          = 'none'
   pseudo_dir       = '/home/multiscale-mechanics/ashwani12/PP/PBE_ONCV/'
/
&SYSTEM
   ibrav            = 0
   ecutwfc          = 120.0
   occupations      = 'smearing'
   degauss          = 0.01
   smearing         = 'mp'
   vdw_corr         = 'grimme-d3'
   dftd3_version    = 4
   dftd3_threebody  = .true.
   ntyp             = 3
   nat              = 90
/
&ELECTRONS
   electron_maxstep = 400
   conv_thr         = 1e-10
   mixing_beta      = 0.3
/
&IONS
/
&CELL
/
&FCP
/
&RISM
/
ATOMIC_SPECIES
Bi 208.9804 Bi.UPF
Te 127.6 Te.UPF
Sb 121.76 Sb.UPF

K_POINTS automatic
2 2 3  0 0 0


CELL_PARAMETERS (angstrom)
  31.076624775  -0.035922294  -0.021086345
  28.373392924  12.674581338  -0.018682149
  18.915664065   4.022747553   7.431528016

ATOMIC_POSITIONS (angstrom)
Bi           17.6021074065        3.7508650977        2.2349598609
Bi           11.6828530167        2.4990728255        1.5053812800
Te           23.1068687576        4.9324205379        3.0121923443
Te           -0.0044422325        0.0710282235       -0.0382464928
Te            6.1688748580        1.3765957733        0.8172662491
Bi           27.0697183543        5.7744092851        5.9500710881
Sb           21.1084776310        4.4876268297        5.1874742052
Te           32.6286055659        6.9562940132        6.6808978368
Te            9.4033336649        2.0820041947        3.7674925147
Te           15.5966554620        3.3966500702        4.5306535144
Bi           27.0100510994        7.9656530554        2.2025777372
Bi           21.1451932727        6.7190819215        1.4721396685
Te           32.5736479246        9.0822796560        2.8781007586
Te            9.4149701279        4.2807392045        0.0461433426
Te           15.6222576188        5.6195741551        0.8489542593
Bi           36.4776205120       10.0070403926        5.9429698502
Bi           30.6170774132        8.7217535381        5.2122059143
Te           42.0287763179       11.0563032286        6.5696010506
Te           18.8985169885        6.2421851516        3.7534255665
Te           25.0640844877        7.6328933001        4.5428996453
Bi           36.5005381575       12.2170611432        2.2531874887
Bi           30.5851118951       10.9484401238        1.4457379617
Te           42.0387508088       13.2961166574        2.8849211857
Te           18.8697746334        8.5153219997        0.0169956543
Te           24.9950970444        9.7360354511        0.7244001030
Bi           45.9457109598       14.2061011617        5.9305934497
Bi           40.0483649278       12.9465978544        5.1830386335
Te           51.4403656271       15.3756777158        6.5355662683
Te           28.3347558029       10.4606498557        3.7307585709
Te           34.4706887134       11.8417862628        4.5296187182
Bi           27.9150720139        3.7153641200        2.1986797241
Bi           22.0903773406        2.4584201961        1.4688424385
Te           33.4790495273        4.8890898018        2.8046527610
Te           10.4101151841       -0.0401033526        0.0184163473
Te           16.4842442853        1.2937133079        0.7690259920
Bi           37.3980321321        5.7087314900        5.9170275395
Bi           31.5687787259        4.4876650446        5.1860943799
Te           42.9176169484        6.9203463767        6.5212162439
Te           19.8861701556        2.0014314968        3.7443865335
Te           25.9454329603        3.2932826609        4.4918634957
Bi           37.3664508841        7.9163368737        2.2021836791
Sb           31.4901922897        6.6786028358        1.4424093204
Te           42.8737743239        9.0995650989        2.9017710987
Te           19.8559034715        4.2110317932       -0.0557306831
Te           25.9093156363        5.4968086680        0.7480069546
Bi           46.8652449630        9.9340049506        5.9095606024
Sb           40.9291049361        8.6677573616        5.1355134771
Te           52.3538339605       11.2067399997        6.6771770763
Te           29.3174117429        6.2270929305        3.6634043009
Te           35.3767888054        7.5151356289        4.4867567025
Bi           46.8779313853       12.1735106054        2.1864861540
Sb           40.9518287067       10.8864646590        1.4638962110
Te           52.4019597299       13.2650684813        2.9413940132
Te           29.3379403987        8.4107682830       -0.0403244000
Te           35.3981093762        9.7712353877        0.7584193201
Bi           56.3316093361       14.1674314300        5.9188564549
Sb           50.4074474677       12.9158364001        5.1647125265
Te           61.8812344402       15.3517287927        6.7208513520
Te           38.7872743126       10.4155438130        3.6808193705
Te           44.8681529838       11.7379692163        4.4508505481
Sb           38.3215962492        3.7231092040        2.2209128964
Sb           32.3927573147        2.4585736656        1.4425312614
Te           43.7706762623        4.9518778017        2.9608736402
Te           20.7689251617       -0.0709281418       -0.0487565321
Te           26.8545094289        1.2992346166        0.6653795849
Sb           47.7786772319        5.7524985399        5.9177003301
Sb           41.8325117401        4.4980850532        5.1794654321
Te           53.2697763651        6.8067271075        6.6519097713
Te           30.2175196256        1.9910860154        3.6618781790
Te           36.3644280829        3.2355681631        4.4503825510
Sb           47.8404759059        7.9557411874        2.2286896272
Sb           41.8360610859        6.6912451106        1.4865759547
Te           53.2947020191        9.1946303993        2.8455286002
Te           30.2164762035        4.1771273776       -0.0059595828
Te           36.3811606011        5.4332588940        0.7022341904
Sb           57.2617887360        9.9614447811        5.9445020256
Bi           51.3610601343        8.7194840092        5.1887295867
Te           62.7450004771       11.1205169299        6.7260617737
Te           39.6766522382        6.1878947119        3.6770497179
Te           45.8615695005        7.4736682538        4.4128513623
Bi           57.1804313917       12.1528702471        2.1702757240
Sb           51.3141461942       10.9303223047        1.4470818362
Te           62.7391828023       13.4111458905        2.8506468467
Te           39.6729696344        8.3990928258        0.0089675328
Te           45.8713957623        9.6680425817        0.7539541948
Sb           66.6791015306       14.1761035600        5.9201899272
Bi           60.8092052326       12.9364504249        5.1933622581
Te           72.1443143282       15.4223659841        6.6327612728
Te           49.1422791987       10.4489458727        3.6654729351
Te           55.2649823462       11.6639393817        4.5261572539
