&CONTROL
   calculation      = 'scf'
   verbosity        = 'high'
   restart_mode     = 'from_scratch'
   tstress          = .true.
   tprnfor          = .true.
   outdir           = './'
   etot_conv_thr    = 1e-08
   forc_conv_thr    = 1e-08
   disk_io          = 'none'
   pseudo_dir       = '/home/IITB/multiscale-mechanics/ashwani12/software/tools/PP/PBE_ONCV/'
/
&SYSTEM
   ibrav            = 0
   nat              = 90
   ntyp             = 2
   ecutwfc          = 120.0
   occupations      = 'smearing'
   degauss          = 0.01
   smearing         = 'mp'
   vdw_corr         = 'grimme-d3'
   dftd3_version    = 4
   dftd3_threebody  = .true.
/
&ELECTRONS
   electron_maxstep = 400
   conv_thr         = 1e-10
   mixing_beta      = 0.3
/
&IONS
/
&CELL
/
&FCP
/
&RISM
/
ATOMIC_SPECIES
Bi 208.9804 Bi.UPF
Te 127.6 Te.UPF

K_POINTS automatic
2 2 3  0 0 0

CELL_PARAMETERS angstrom
31.17724799100000 -0.10353023400000 -0.06157531800000
28.43781845700000 12.77974926300000 -0.06157531200000
18.95854563800000 4.03124061600000 7.50588674800000

ATOMIC_POSITIONS angstrom
Bi 17.6064819522 3.7437452396 2.2266180146  
Bi 11.7444796836 2.4972814120 1.4852751493  
Te 23.2080151440 4.9348243834 2.9350204589  
Te 0.0000000000 0.0000000000 0.0000000000  
Te 6.1429464917 1.3062022682 0.7768727051  
Bi 27.0857547712 5.7593655476 5.9795613886  
Bi 21.2237525026 4.5129017200 5.2382185233  
Te 32.6872879630 6.9504446914 6.6879638329  
Te 9.4792728190 2.0156203080 3.7529433740  
Te 15.6222193107 3.3218225762 4.5298160791  
Bi 27.0857547712 8.0036616606 2.2060929106  
Bi 21.2237525026 6.7571978330 1.4647500453  
Te 32.6872879630 9.1947408044 2.9144953549  
Te 9.4792728190 4.2599164210 -0.0205251040  
Te 15.6222193107 5.5661186892 0.7563476011  
Bi 36.5650275902 10.0192819686 5.9590362846  
Bi 30.7030253216 8.7728181410 5.2176934193  
Te 42.1665607820 11.2103611124 6.6674387289  
Te 18.9585456380 6.2755367290 3.7324182700  
Te 25.1014921297 7.5817389972 4.5092909751  
Bi 36.5650275902 12.2635780816 2.1855678066  
Bi 30.7030253216 11.0171142540 1.4442249413  
Te 42.1665607820 13.4546572254 2.8939702509  
Te 18.9585456380 8.5198328420 -0.0410502080  
Te 25.1014921297 9.8260351102 0.7358224971  
Bi 46.0443004092 14.2791983896 5.9385111806  
Bi 40.1822981406 13.0327345620 5.1971683153  
Te 51.6458336010 15.4702775334 6.6469136249  
Te 28.4378184570 10.5354531500 3.7118931660  
Te 34.5807649487 11.8416554182 4.4887658711  
Bi 27.9988979492 3.7092351616 2.2060929086  
Bi 22.1368956806 2.4627713340 1.4647500433  
Te 33.6004311410 4.9003143054 2.9144953529  
Te 10.3924159970 -0.0345100780 -0.0205251060  
Te 16.5353624887 1.2716921902 0.7563475991  
Bi 37.4781707682 5.7248554696 5.9590362826  
Bi 31.6161684996 4.4783916420 5.2176934173  
Te 43.0797039600 6.9159346134 6.6674387269  
Te 19.8716888160 1.9811102300 3.7324182680  
Te 26.0146353077 3.2873124982 4.5092909731  
Bi 37.4781707682 7.9691515826 2.1855678046  
Bi 31.6161684996 6.7226877550 1.4442249393  
Te 43.0797039600 9.1602307264 2.8939702489  
Te 19.8716888160 4.2254063430 -0.0410502100  
Te 26.0146353077 5.5316086112 0.7358224951  
Bi 46.9574435872 9.9847718906 5.9385111786  
Bi 41.0954413186 8.7383080630 5.1971683133  
Te 52.5589767790 11.1758510344 6.6469136229  
Te 29.3509616350 6.2410266510 3.7118931640  
Te 35.4939081267 7.5472289192 4.4887658691  
Bi 46.9574435872 12.2290680036 2.1650427006  
Bi 41.0954413186 10.9826041760 1.4236998353  
Te 52.5589767790 13.4201471474 2.8734451449  
Te 29.3509616350 8.4853227640 -0.0615753140  
Te 35.4939081267 9.7915250322 0.7152973911  
Bi 56.4367164062 14.2446883116 5.9179860746  
Bi 50.5747141376 12.9982244840 5.1766432093  
Te 62.0382495980 15.4357674554 6.6263885189  
Te 38.8302344540 10.5009430720 3.6913680600  
Te 44.9731809457 11.8071453402 4.4682407651  
Bi 38.3913139462 3.6747250836 2.1855678026  
Bi 32.5293116776 2.4282612560 1.4442249373  
Te 43.9928471380 4.8658042274 2.8939702469  
Te 20.7848319940 -0.0690201560 -0.0410502120  
Te 26.9277784857 1.2371821122 0.7358224931  
Bi 47.8705867652 5.6903453916 5.9385111766  
Bi 42.0085844966 4.4438815640 5.1971683113  
Te 53.4721199570 6.8814245354 6.6469136209  
Te 30.2641048130 1.9466001520 3.7118931620  
Te 36.4070513047 3.2528024202 4.4887658671  
Bi 47.8705867652 7.9346415046 2.1650426986  
Bi 42.0085844966 6.6881776770 1.4236998333  
Te 53.4721199570 9.1257206484 2.8734451429  
Te 30.2641048130 4.1908962650 -0.0615753160  
Te 36.4070513047 5.4970985332 0.7152973891  
Bi 57.3498595842 9.9502618126 5.9179860726  
Bi 51.4878573156 8.7037979850 5.1766432073  
Te 62.9513927760 11.1413409564 6.6263885169  
Te 39.7433776320 6.2065165730 3.6913680580  
Te 45.8863241237 7.5127188412 4.4682407631  
Bi 57.3498595842 12.1945579256 2.1445175946  
Bi 51.4878573156 10.9480940980 1.4031747293  
Te 62.9513927760 13.3856370694 2.8529200389  
Te 39.7433776320 8.4508126860 -0.0821004200  
Te 45.8863241237 9.7570149542 0.6947722851  
Bi 66.8291324032 14.2101782336 5.8974609686  
Bi 60.9671301346 12.9637144060 5.1561181033  
Te 72.4306655950 15.4012573774 6.6058634129  
Te 49.2226504510 10.4664329940 3.6708429540  
Te 55.3655969427 11.7726352622 4.4477156591  


