&CONTROL
   calculation      = 'scf'
   verbosity        = 'high'
   restart_mode     = 'from_scratch'
   tstress          = .true.
   tprnfor          = .true.
   outdir           = './'
   max_seconds      = 342000
   etot_conv_thr    = 1e-10
   forc_conv_thr    = 1e-10
   disk_io          = 'none'
   pseudo_dir       = '/home/multiscale-mechanics/ashwani12/PP/PBE_ONCV/'
/
&SYSTEM
   ibrav            = 0
   ecutwfc          = 120.0
   occupations      = 'smearing'
   degauss          = 0.01
   smearing         = 'mp'
   vdw_corr         = 'grimme-d3'
   dftd3_version    = 4
   dftd3_threebody  = .true.
   ntyp             = 3
   nat              = 90
/
&ELECTRONS
   electron_maxstep = 400
   conv_thr         = 1e-10
   mixing_beta      = 0.3
/
&IONS
/
&CELL
/
&FCP
/
&RISM
/
ATOMIC_SPECIES
Bi 208.9804 Bi.UPF
Sb 121.76 Sb.UPF
Te 127.6 Te.UPF

K_POINTS automatic
2 2 3  0 0 0

CELL_PARAMETERS (angstrom)
  30.939359502   0.030632369   0.016721741
  28.275096416  12.560106042   0.017162585
  18.849698778   4.008259843   7.349874208

ATOMIC_POSITIONS (angstrom)
Bi           17.5147945235        3.7191587207        2.2113769092
Sb           11.5909256996        2.4867614301        1.4648358468
Te           23.0254408792        4.8091471216        2.9570807742
Te           -0.0317819089        0.0180670725       -0.0225437336
Te            6.1302518149        1.3908041480        0.7318959005
Sb           26.9879199132        5.7594537492        5.8999875763
Sb           21.0188215152        4.4554239249        5.1355614741
Te           32.4204594483        6.9774910190        6.6385528848
Te            9.3941099307        2.0782349149        3.6711505463
Te           15.5565174217        3.2962599675        4.5359648827
Sb           26.9752047218        7.9426596351        2.2084568377
Bi           21.0843079394        6.6577828331        1.4830444367
Te           32.4542898768        8.9995872002        2.9677439495
Te            9.4199144187        4.1948698386        0.0067882408
Te           15.5744375640        5.5863106075        0.7630012263
Sb           36.4098820842        9.9351855601        5.9120876462
Sb           30.4642923079        8.6771047159        5.1770118139
Te           41.9206504037       11.0273858252        6.5236706260
Te           18.8364923636        6.2113157256        3.7356786389
Te           25.0432345555        7.5113655627        4.4478045488
Bi           36.3421951841       12.0966026395        2.2425695442
Bi           30.4958084089       10.8456322083        1.4976609001
Te           41.8662791388       13.2728920787        2.8098597529
Te           18.7922421516        8.3962269068        0.0252220777
Te           25.0224121194        9.6800230675        0.7803175817
Sb           45.8354082011       14.1059479397        5.9166364299
Bi           39.9072650310       12.8553378313        5.1264621857
Te           51.2867094703       15.2655359246        6.5304608838
Te           28.2445441494       10.3636431208        3.7178434990
Te           34.3961135873       11.6855587594        4.5648662465
Bi           27.8528014698        3.7442644674        2.2320925609
Sb           21.9100043630        2.4649361251        1.4782277618
Te           33.3425277607        4.9062771177        2.8016082905
Te           10.3169876296        0.0183376958        0.0104662743
Te           16.5033224367        1.2381460229        0.7116627155
Sb           37.3152857581        5.7285998296        5.8756670578
Bi           31.4023524706        4.4972297749        5.1360308474
Te           42.7264354740        6.9015965710        6.6072040877
Te           19.7634439994        1.9869572637        3.7016125008
Te           25.9174511345        3.3147673268        4.5581062043
Sb           37.2881376966        7.8959009457        2.2211469556
Sb           31.3421029128        6.6562713475        1.4644624680
Te           42.7155959249        9.0722884759        2.9033345171
Te           19.7546765941        4.1695739558       -0.0408661549
Te           25.8880203796        5.5730619033        0.7569429947
Sb           46.7055070245        9.9323363194        5.8847676519
Sb           40.7984625214        8.6417765382        5.1389905279
Te           52.1355907075       11.0852600850        6.5883505609
Te           29.1589677646        6.2763746346        3.6909564216
Te           35.3674184601        7.5051211296        4.4834261291
Sb           46.7454471009       12.1131299806        2.2261137510
Sb           40.7614880691       10.8312721697        1.4750857385
Te           52.1265318473       13.2689433860        2.9293578949
Te           29.1442346024        8.3484999746       -0.0058077854
Te           35.3380007813        9.6108525589        0.7566454730
Sb           56.1777426439       14.1101098299        5.9271529506
Sb           50.1926591448       12.8442828783        5.1613634569
Te           61.6023221422       15.1837428294        6.6357704496
Te           38.5920036438       10.3140147279        3.6873284731
Te           44.7892366706       11.7158929782        4.4434726393
Sb           38.1618138236        3.7802087239        2.2089576854
Sb           32.2251547220        2.4957038958        1.4528048552
Te           43.5919306333        4.9063013090        2.9301640556
Te           20.6309759711        0.0215286834        0.0085042728
Te           26.7933170164        1.2681603652        0.7832728857
Sb           47.5705546551        5.7514595946        5.9166928453
Sb           41.6509377842        4.5193287851        5.1713527807
Te           53.0059341147        6.9092101077        6.5594837688
Te           30.0749454479        1.9603581055        3.6833439628
Te           36.2316424022        3.3522062988        4.4525031503
Sb           47.6130364525        7.9534400464        2.2631843732
Sb           41.6417739149        6.6669782620        1.4934224507
Te           53.0488235493        9.1862347825        2.9574190332
Te           30.0730705723        4.2164662941       -0.0261927071
Te           36.2233130492        5.5203519360        0.7668340505
Sb           57.0349349710        9.9425401932        5.9116235957
Sb           51.0828545531        8.7023965840        5.1510593553
Te           62.4389023088       11.1064994915        6.6255347096
Te           39.4802178799        6.2073327225        3.6858847150
Te           45.6390504185        7.5219369070        4.4755112211
Sb           57.0397615656       12.0998737871        2.2318410823
Sb           51.0618278375       10.8812875351        1.5054116637
Te           62.4620380401       13.3631523420        2.9771156671
Te           39.4781233216        8.3765668650        0.0317455306
Te           45.6875829749        9.7110210906        0.8261059484
Sb           66.4468948056       14.1460966804        5.9207314202
Sb           60.5029735515       12.8440943165        5.1832397170
Te           71.8654742192       15.3487245993        6.6545512145
Te           48.8961363511       10.4057890071        3.7057708061
Te           55.1120501078       11.7286987028        4.4834495096
