&CONTROL
   calculation      = 'scf'
   verbosity        = 'high'
   restart_mode     = 'from_scratch'
   tstress          = .true.
   tprnfor          = .true.
   max_seconds      = 172800
   outdir           = './'
   etot_conv_thr    = 1e-10
   forc_conv_thr    = 1e-10
   pseudo_dir       = '/home/multiscale-mechanics/ashwani12/PP/PBE_ONCV/'
/
&SYSTEM
   ibrav            = 0
   ecutwfc          = 120.0
   occupations      = 'smearing'
   degauss          = 0.01
   smearing         = 'mp'
   vdw_corr         = 'grimme-d3'
   dftd3_version    = 4
   dftd3_threebody  = .true.
   ntyp             = 3
   nat              = 90
/
&ELECTRONS
   electron_maxstep = 400
   conv_thr         = 1e-10
   mixing_beta      = 0.3
/
&IONS
/
&CELL
/
&FCP
/
&RISM
/
ATOMIC_SPECIES
Bi 208.9804 Bi.UPF
Te 127.6 Te.UPF
Sb 121.76 Sb.UPF

K_POINTS automatic
2 2 3  0 0 0


CELL_PARAMETERS (angstrom)
  31.134959740  -0.062337890  -0.039185003
  28.415980248  12.733298559  -0.038594994
  18.943472725   4.031044958   7.468524018

ATOMIC_POSITIONS (angstrom)
Bi           17.6157616644        3.7605744011        2.2054681404
Bi           11.6932032816        2.4871496064        1.4881763831
Te           23.1250520977        4.9370535233        3.0180977373
Te            0.0048607839        0.0152528457       -0.0361752521
Te            6.1626503933        1.3100654084        0.7840065798
Bi           27.1058486903        5.7670189970        5.9655879118
Sb           21.1219870594        4.5089329845        5.1988516653
Te           32.6621176721        6.9649740289        6.6963900481
Te            9.4377723832        2.0148251081        3.7883894963
Te           15.6260119839        3.3088384693        4.4915074172
Bi           27.0635369181        7.9940687063        2.2285700701
Bi           21.1903858167        6.7341241851        1.4621053052
Te           32.6396643918        9.1156479033        2.8714103908
Te            9.4409903605        4.2796295789       -0.0187927570
Te           15.6469755540        5.6436553134        0.8031959237
Bi           36.5472284528       10.0267568267        5.9428798544
Bi           30.6793967673        8.7501775006        5.1970070449
Te           42.1145747709       11.1055811870        6.6039324137
Te           18.9445027014        6.2707920442        3.7179206838
Te           25.1254287628        7.6545429937        4.5714922430
Bi           36.5507903074       12.2368074983        2.2230865211
Bi           30.6434801371       10.9849094659        1.4590413256
Te           42.0777238702       13.3260734416        2.8495255479
Te           18.8938558899        8.5155704882       -0.0179742474
Te           25.0668033790        9.7715739528        0.7349865547
Bi           46.0255871448       14.2315475731        5.9366933428
Bi           40.1359075180       12.9646393811        5.1867595043
Te           51.5103689934       15.5087952795        6.5875637614
Te           28.3781842123       10.5105507980        3.7453990793
Te           34.5654029555       11.8854191505        4.5321781758
Bi           27.9533168963        3.7168410298        2.2107159549
Bi           22.1287908072        2.4815406178        1.4578720173
Te           33.5493154037        4.9667692426        2.8663094513
Te           10.4144176153       -0.0568390253        0.0024583355
Te           16.5112957180        1.2853839078        0.7703676156
Bi           37.4333304711        5.7187727742        5.9485813502
Bi           31.6075842221        4.4926897457        5.2154366520
Te           43.0115160272        7.0179343580        6.5775653213
Te           19.8806201081        2.0297279505        3.7250818906
Te           25.9743855231        3.3072290308        4.5034169284
Bi           37.4050682666        7.9537871415        2.1777872206
Sb           31.5531976866        6.7061303137        1.4597623661
Te           42.9381374762        9.2206362846        2.9242216669
Te           19.8966480669        4.2247055120       -0.0746028327
Te           25.9616187638        5.5302446811        0.7677955150
Bi           46.9016013843        9.9756900198        5.9178869134
Sb           41.0081927857        8.7359987054        5.1646711237
Te           52.4617098424       11.1651599474        6.7293051148
Te           29.3681044846        6.2332712785        3.6799185299
Te           35.4369703917        7.5438213907        4.4917041558
Bi           46.9458518223       12.2112927283        2.1830989804
Sb           40.9834682060       10.9265951677        1.4419041375
Te           52.5414519628       13.3977007129        2.9090945080
Te           29.3563535661        8.4270900398       -0.0103001766
Te           35.4246230689        9.7970349680        0.7322576767
Bi           56.3758963346       14.2128582836        5.9221981132
Bi           50.5116335954       12.9713178498        5.1809287597
Te           61.9455808567       15.3913646004        6.7408066449
Te           38.8434805518       10.4462063388        3.6765199818
Te           44.9285970567       11.7913356367        4.4578016135
Bi           38.3540155045        3.7096878578        2.2221999019
Bi           32.4844424827        2.4573980891        1.4496283504
Te           43.9552339297        4.8872386290        2.8993437533
Te           20.7532197114       -0.0738391296       -0.0489083696
Te           26.8585026590        1.2726191345        0.7273897297
Bi           47.8067380319        5.7419306514        5.9128018888
Bi           41.9715505479        4.4969656071        5.1837523917
Te           53.3945151631        6.8085156798        6.5899452348
Te           30.2269975016        1.9729142770        3.7081516767
Te           36.3864454670        3.2077210733        4.5525596491
Sb           47.9034129426        7.9629579482        2.1813582888
Bi           41.9575404496        6.7172586542        1.4558517657
Te           53.4336076689        9.1294630261        2.8946442394
Te           30.2421677497        4.2418101782       -0.0175194840
Te           36.4064134899        5.4934244349        0.6454319084
Sb           57.3522639452        9.9865384340        5.9434267965
Bi           51.4389455646        8.7059091844        5.1949894339
Te           62.8971647000       11.1525918021        6.6303293058
Te           39.7092045234        6.2648230071        3.7140844838
Te           45.8780830348        7.5523414012        4.3499023703
Bi           57.2778616259       12.1823232113        2.1644482424
Bi           51.4649439482       10.9502076575        1.4295537804
Te           62.8899196668       13.3825963168        2.8863220219
Te           39.6915204645        8.4451662798       -0.0452324008
Te           45.9569735258        9.6985434549        0.7215273535
Sb           66.8047151178       14.2082024537        5.9320775882
Bi           60.9044809532       12.9671792959        5.1881693815
Te           72.3810901294       15.3906266740        6.5941841615
Te           49.1671882662       10.4246581091        3.6662474685
Te           55.3521522539       11.6920556696        4.5139555528
