&CONTROL
   calculation      = 'scf'
   verbosity        = 'high'
   restart_mode     = 'from_scratch'
   tstress          = .true.
   tprnfor          = .true.
   outdir           = './'
   etot_conv_thr    = 1e-08
   forc_conv_thr    = 1e-08
   disk_io          = 'none'
   pseudo_dir       = '/home/IITB/multiscale-mechanics/ashwani12/software/tools/PP/PBE_ONCV/'
/
&SYSTEM
   ibrav            = 0
   nat              = 5
   ntyp             = 2
   ecutwfc          = 120.0
   occupations      = 'smearing'
   degauss          = 0.01
   smearing         = 'mp'
   vdw_corr         = 'grimme-d3'
   dftd3_version    = 4
   dftd3_threebody  = .true.
/
&ELECTRONS
   electron_maxstep = 400
   conv_thr         = 1e-09
   mixing_beta      = 0.3
/
&IONS
/
&CELL
/
&FCP
/
&RISM
/
ATOMIC_SPECIES
Bi 208.9804 Bi.UPF
Te 127.6 Te.UPF

K_POINTS automatic
10 10 10  0 0 0


CELL_PARAMETERS (angstrom)
  10.392415997  -0.034510078  -0.020525106
   9.479272819   4.259916421  -0.020525104
   9.479272819   2.015620308   3.752943374

ATOMIC_POSITIONS (angstrom)
Bi              17.6064819522        3.7437452396        2.2266180146
Bi              11.7444796836        2.4972814120        1.4852751493
Te              23.2080151440        4.9348243834        2.9350204589
Te               0.0000000000        0.0000000000        0.0000000000
Te               6.1429464917        1.3062022682        0.7768727051
