&CONTROL
   calculation      = 'scf'
   verbosity        = 'high'
   restart_mode     = 'restart'
   tstress          = .true.
   tprnfor          = .true.
   max_seconds      = 342000
   outdir           = './'
   etot_conv_thr    = 1e-10
   forc_conv_thr    = 1e-10
   disk_io          = 'none'
   pseudo_dir       = '/home/multiscale-mechanics/ashwani12/PP/PBE_ONCV/'
/
&SYSTEM
   ibrav            = 0
   ecutwfc          = 120.0
   occupations      = 'smearing'
   degauss          = 0.01
   smearing         = 'mp'
   vdw_corr         = 'grimme-d3'
   dftd3_version    = 4
   dftd3_threebody  = .true.
   ntyp             = 3
   nat              = 90
/
&ELECTRONS
   electron_maxstep = 400
   conv_thr         = 1e-10
   mixing_beta      = 0.3
/
&IONS
/
&CELL
/
&FCP
/
&RISM
/
ATOMIC_SPECIES
Sb 121.76 Sb.UPF
Te 127.6 Te.UPF
Bi 208.9804 Bi.UPF

K_POINTS automatic
2 2 3  0 0 0


CELL_PARAMETERS (angstrom)
  30.995306827  -0.000513585   0.001014317
  28.313540040  12.614935322  -0.000589653
  18.876005789   4.013804877   7.387550788

ATOMIC_POSITIONS (angstrom)
Sb           17.5697103448        3.7461544792        2.2130123192
Sb           11.6083166930        2.5037121189        1.4761202129
Te           22.9922288209        4.8983598428        2.9279832144
Te            0.0261233820        0.0029373853       -0.0112018331
Te            6.1300541225        1.3848696654        0.8499079078
Bi           26.9484499046        5.7653129378        5.8940286249
Sb           21.0726814602        4.4900568673        5.1747305580
Te           32.4834555789        6.9327671946        6.6801531615
Te            9.4368582525        2.0828245704        3.6839753575
Te           15.6452882616        3.3385064550        4.4747932717
Sb           26.9956104288        7.9585652531        2.1985140216
Sb           21.0478300337        6.6378166016        1.4685785161
Te           32.4878954738        9.1873502163        2.8788635023
Te            9.4079031739        4.2453863582        0.0556197109
Te           15.6268908473        5.5103112673        0.8183148822
Sb           36.4400139474        9.9180550799        5.9627189708
Bi           30.5069863603        8.7022587887        5.1790975485
Te           41.8981761680       11.0172762934        6.6598875272
Te           18.8684923521        6.1593824542        3.6749593728
Te           25.0123324621        7.6121628875        4.4041109277
Bi           36.4093412015       12.1199285896        2.2731310055
Sb           30.5164417165       10.9229224419        1.4558764715
Te           41.9219613100       13.4126247151        2.8799797336
Te           18.8567158731        8.3574896788        0.0568718954
Te           25.0837060860        9.7440475846        0.7283671481
Sb           45.8990514585       14.1940023871        5.9048907230
Bi           39.9510969733       12.9009952463        5.1787270362
Te           51.3526884095       15.3938671337        6.6361694290
Te           28.2678293120       10.4169512972        3.6243546850
Te           34.4352326702       11.6376497043        4.5673497261
Sb           27.9039838606        3.7278294290        2.2047423739
Sb           21.9446568723        2.4877053649        1.4738660856
Te           33.4469429702        4.8455756469        2.8388526982
Te           10.3446949960        0.0305691307        0.0230723506
Te           16.4808956770        1.3942180194        0.7246000756
Sb           37.3404588253        5.7761196820        5.9091001705
Bi           31.4598532856        4.4846112249        5.1489643322
Te           42.7721096021        6.8992611015        6.6307890440
Te           19.7639225742        2.0797497116        3.6908985593
Te           25.9069581173        3.2963314660        4.3817957488
Sb           37.3339017822        7.9090341398        2.2351856398
Bi           31.4668869138        6.6958562044        1.4194135203
Te           42.8174759419        9.0228504610        3.0351905062
Te           19.7507125862        4.1896595778        0.0156646245
Te           25.9252362615        5.5029275593        0.8634663035
Bi           46.7571469780        9.9424625414        5.9333510388
Sb           40.8218753706        8.6378709927        5.2157198633
Te           52.3652276919       11.1277021185        6.5512892680
Te           29.1639633667        6.2070881784        3.6274139669
Te           35.3890916152        7.5257879755        4.4848554065
Bi           46.7215160158       12.1722181339        2.2348657404
Bi           40.8847103043       10.8743412793        1.5154748762
Te           52.2477241858       13.3018949863        2.7896536485
Te           29.1729255241        8.4799643580        0.0139572894
Te           35.3653650732        9.6423151508        0.8045603885
Bi           56.2159701571       14.1236733774        5.8844845067
Bi           50.3171757511       12.9164014434        5.1345129988
Te           61.7789274969       15.3246529129        6.6384893998
Te           38.6176175274       10.3241377093        3.7535108575
Te           44.7381325533       11.8105448089        4.5350008721
Sb           38.2227836480        3.7810182089        2.2386413324
Sb           32.3456011878        2.4460222297        1.4397508020
Te           43.6604594578        4.8802026151        2.9329827916
Te           20.6847017856        0.0625215745       -0.0083921323
Te           26.8926753534        1.3264179300        0.7471606315
Sb           47.7223701448        5.7226158130        5.9060739368
Sb           41.7113652616        4.5074844314        5.1769590060
Te           53.1857316916        6.8442984319        6.6175471544
Te           30.1069453163        1.9977795350        3.5980047153
Te           36.2623858762        3.3936577919        4.4552980457
Sb           47.6783527949        7.8935101308        2.2609085451
Sb           41.7252719458        6.6625821637        1.5478896595
Te           53.1244645700        9.1011841751        2.7548765011
Te           30.1098433960        4.1340424980        0.0155576970
Te           36.3189053413        5.5205666725        0.7423948937
Sb           57.1343754553        9.9479606023        5.8748004579
Bi           51.2315658423        8.6703854747        5.1299609898
Te           62.5754246699       11.1012047153        6.7457101373
Te           39.5202787352        6.2149978146        3.7162021395
Te           45.7440700815        7.4259157710        4.4772752273
Sb           57.1387878918       12.1445745428        2.1623591062
Sb           51.1376021156       10.8941675266        1.4130963697
Te           62.6033962028       13.3057608375        2.8763103255
Te           39.5224344618        8.3330923672        0.0526517357
Te           45.6725094413        9.6316373212        0.8842796968
Bi           66.5050340693       14.1388312736        5.9576671299
Bi           60.6355661101       12.8896095199        5.1857860484
Te           71.9820802218       15.3964312756        6.6209905285
Te           48.9857391497       10.3905890141        3.6340712646
Te           55.1936577441       11.6578480874        4.3742003022
