&CONTROL
   calculation      = 'scf'
   verbosity        = 'high'
   restart_mode     = 'from_scratch'
   tstress          = .true.
   tprnfor          = .true.
   outdir           = './'
   etot_conv_thr    = 1e-08
   forc_conv_thr    = 1e-08
   disk_io          = 'none'
   pseudo_dir       = '/home/multiscale-mechanics/ashwani12/PP/PBE_ONCV/'
/
&SYSTEM
   ibrav            = 0
   nat              = 5
   ntyp             = 2
   ecutwfc          = 120.0
   occupations      = 'smearing'
   degauss          = 0.01
   smearing         = 'mp'
   vdw_corr         = 'grimme-d3'
   dftd3_version    = 4
   dftd3_threebody  = .true.
/
&ELECTRONS
   electron_maxstep = 1400
   conv_thr         = 1e-09
   mixing_beta      = 0.3
/
&IONS
/
&CELL
/
&FCP
/
&RISM
/
ATOMIC_SPECIES
Sb 121.76 Sb.UPF
Te 127.6 Te.UPF

K_POINTS automatic
10 10 10  0 0 0

CELL_PARAMETERS (angstrom)
  10.295840671  -0.039777002  -0.023614114
   9.443040530   4.103035834  -0.023614110
   9.443040543   1.943854748   3.613431847

ATOMIC_POSITIONS (angstrom)
Sb           11.6133707252        2.3906183322        1.4192226726
Sb           17.5685510183        3.6164952488        2.1469809507
Te            6.1685939984        1.2698082634        0.7538387596
Te           23.0133277452        4.7373053177        2.8123648637
Te            0.0000000000        0.0000000000        0.0000000000


