&CONTROL
   calculation      = 'scf'
   verbosity        = 'high'
   restart_mode     = 'from_scratch'
   tstress          = .true.
   tprnfor          = .true.
   outdir           = './'
   etot_conv_thr    = 1e-08
   forc_conv_thr    = 1e-08
   disk_io          = 'none'
   pseudo_dir       = '/home/IITB/multiscale-mechanics/ashwani12/software/tools/PP/PBE_ONCV/'
/
&SYSTEM
   ibrav            = 0
   nat              = 15
   ntyp             = 2
   ecutwfc          = 160.0
   occupations      = 'smearing'
   degauss          = 0.01
   smearing         = 'mp'
   vdw_corr         = 'grimme-d3'
   dftd3_version    = 4
   dftd3_threebody  = .true.
/
&ELECTRONS
   electron_maxstep = 400
   conv_thr         = 1e-08
   mixing_beta      = 0.3
/
&IONS
/
&CELL
/
&FCP
/
&RISM
/
ATOMIC_SPECIES
Sb 121.76 Sb.UPF
Te 127.6  Te.UPF

K_POINTS automatic
10 10 1  0 0 0

CELL_PARAMETERS (angstrom)
   4.243871284  -0.000000000  -0.000000000
  -2.121935642   3.675300343  -0.000000000
  -0.000000000  -0.000000000  29.875779227

ATOMIC_POSITIONS (angstrom)
Sb              -0.0000000213        2.4502002406        1.9316524228
Sb              -0.0000000213        2.4502002406        8.0269425697
Sb              -0.0000000000        0.0000000000       11.8901943457
Sb              -0.0000000000       -0.0000000000       17.9855848810
Sb               2.1219356634        1.2251001019       21.8488366571
Sb               2.1219356634        1.2251001019       27.9441268040
Te              -0.0000000000       -0.0000000000        6.3221509634
Te               2.1219356634        1.2251001019        3.6364466939
Te               0.0000000000        0.0000000000        0.0000000000
Te               2.1219356634        1.2251001019       16.2807935235
Te              -0.0000000213        2.4502002406       13.5949857033
Te               2.1219356634        1.2251001019        9.9585661365
Te              -0.0000000213        2.4502002406       26.2393325328
Te              -0.0000000000       -0.0000000000       23.5536282633
Te              -0.0000000213        2.4502002406       19.9172130903


